
     Program PWSCF v.7.5 starts on  8May2026 at 13:15:15 

     This program is part of the open-source Quantum ESPRESSO suite
     for quantum simulation of materials; please cite
         "P. Giannozzi et al., J. Phys.:Condens. Matter 21 395502 (2009);
         "P. Giannozzi et al., J. Phys.:Condens. Matter 29 465901 (2017);
         "P. Giannozzi et al., J. Chem. Phys. 152 154105 (2020);
          URL http://www.quantum-espresso.org", 
     in publications or presentations arising from this work. More details at
     http://www.quantum-espresso.org/quote

     Parallel version (MPI), running on     1 processors

     MPI processes distributed on     1 nodes
     2646 MiB available memory on the printing compute node when the environment starts

     Waiting for input...
     Reading input from standard input

     Current dimensions of program PWSCF are:
     Max number of different atomic species (ntypx) = 10
     Max number of k-points (npk) =  40000
     Max angular momentum in pseudopotentials (lmaxx) =  4

     gamma-point specific algorithms are used

     Subspace diagonalization in iterative solution of the eigenvalue problem:
     a serial algorithm will be used


     G-vector sticks info
     --------------------
     sticks:   dense  smooth     PW     G-vecs:    dense   smooth      PW
     Sum       13109    6549   1633              1126173   398135   49557

     Using Slab Decomposition



     bravais-lattice index     =            1
     lattice parameter (alat)  =      22.6700  a.u.
     unit-cell volume          =   11650.7682 (a.u.)^3
     number of atoms/cell      =            2
     number of atomic types    =            1
     number of electrons       =        12.00 (up:   7.00, down:   5.00)
     number of Kohn-Sham states=            7
     kinetic-energy cutoff     =      40.0000  Ry
     charge density cutoff     =     320.0000  Ry
     scf convergence threshold =      1.0E-08
     mixing beta               =       0.7000
     number of iterations used =            8  plain     mixing
     energy convergence thresh.=      1.0E-04
     force convergence thresh. =      1.0E-04
     Exchange-correlation= PBE
                           (   1   4   3   4   0   0   0)
     nstep                     =           50


     celldm(1)=  22.670000  celldm(2)=   0.000000  celldm(3)=   0.000000
     celldm(4)=   0.000000  celldm(5)=   0.000000  celldm(6)=   0.000000

     crystal axes: (cart. coord. in units of alat)
               a(1) = (   1.000000   0.000000   0.000000 )  
               a(2) = (   0.000000   1.000000   0.000000 )  
               a(3) = (   0.000000   0.000000   1.000000 )  

     reciprocal axes: (cart. coord. in units 2 pi/alat)
               b(1) = (  1.000000  0.000000  0.000000 )  
               b(2) = (  0.000000  1.000000  0.000000 )  
               b(3) = (  0.000000  0.000000  1.000000 )  


     PseudoPot. # 1 for O  read from file:
     /home/nour/o2-reference/O.UPF
     MD5 check sum: b15f85fac327ccb5e22ba8b88818af9f
     Pseudo is Ultrasoft + core correction, Zval =  6.0
     Generated using &quot;atomic&quot; code by A. Dal Corso  v.6.3MaX
     Using radial grid of 1095 points,  4 beta functions with: 
                l(1) =   0
                l(2) =   0
                l(3) =   1
                l(4) =   1
     Q(r) pseudized with 0 coefficients 


     atomic species   valence    mass     pseudopotential
     O                 6.00    16.00000     O ( 1.00)

     Starting magnetic structure 
     atomic species   magnetization
     O               0.000

      2 Sym. Ops. (no inversion) found



   Cartesian axes

     site n.     atom                  positions (alat units)
         1        O      tau(   1) = (   0.5001481   0.5001481   0.5001481  )
         2        O      tau(   2) = (   0.6010113   0.5001481   0.5001481  )

     number of k points=     1
                       cart. coord. in units 2pi/alat
        k(    1) = (   0.0000000   0.0000000   0.0000000), wk =   1.0000000

     Dense  grid:   563087 G-vectors     FFT dimensions: ( 135, 135, 135)

     Smooth grid:   199068 G-vectors     FFT dimensions: (  96,  96,  96)

     Estimated max dynamical RAM per process >       1.07 GB
     Generating pointlists ...
     new r_m :   0.0416 (alat units)  0.9432 (a.u.) for type    1

     Initial potential from superposition of free atoms

     starting charge      12.0000, renormalised to      12.0000

     negative rho (up, down):  1.871E-03 1.871E-03
     Starting wfcs are    8 randomized atomic wfcs

     total cpu time spent up to now is        4.3 secs

     per-process dynamical memory:   419.2 Mb

     Self-consistent Calculation

     iteration #  1     ecut=    40.00 Ry     beta= 0.70
     Davidson diagonalization with overlap
     ethr =  1.00E-02,  avg # of iterations =  2.0

     negative rho (up, down):  1.857E-03 1.142E-03

     total cpu time spent up to now is        8.0 secs

     total energy              =     -64.44515685 Ry
     estimated scf accuracy    <       0.12914326 Ry

     total magnetization       =     2.00 Bohr mag/cell
     absolute magnetization    =     2.00 Bohr mag/cell

     iteration #  2     ecut=    40.00 Ry     beta= 0.70
     Davidson diagonalization with overlap
     ethr =  1.08E-03,  avg # of iterations =  4.5

     negative rho (up, down):  2.336E-03 1.255E-03

     total cpu time spent up to now is       11.9 secs

     total energy              =     -64.51465559 Ry
     estimated scf accuracy    <       0.01345403 Ry

     total magnetization       =     2.00 Bohr mag/cell
     absolute magnetization    =     2.03 Bohr mag/cell

     iteration #  3     ecut=    40.00 Ry     beta= 0.70
     Davidson diagonalization with overlap
     ethr =  1.12E-04,  avg # of iterations =  3.5

     negative rho (up, down):  2.431E-03 1.288E-03

     total cpu time spent up to now is       15.8 secs

     total energy              =     -64.51944509 Ry
     estimated scf accuracy    <       0.00140524 Ry

     total magnetization       =     2.00 Bohr mag/cell
     absolute magnetization    =     2.03 Bohr mag/cell

     iteration #  4     ecut=    40.00 Ry     beta= 0.70
     Davidson diagonalization with overlap
     ethr =  1.17E-05,  avg # of iterations =  5.0

     negative rho (up, down):  2.459E-03 1.297E-03

     total cpu time spent up to now is       19.7 secs

     total energy              =     -64.51997634 Ry
     estimated scf accuracy    <       0.00101114 Ry

     total magnetization       =     2.00 Bohr mag/cell
     absolute magnetization    =     2.04 Bohr mag/cell

     iteration #  5     ecut=    40.00 Ry     beta= 0.70
     Davidson diagonalization with overlap
     ethr =  8.43E-06,  avg # of iterations =  2.0

     negative rho (up, down):  2.496E-03 1.309E-03

     total cpu time spent up to now is       23.5 secs

     total energy              =     -64.52038039 Ry
     estimated scf accuracy    <       0.00029088 Ry

     total magnetization       =     2.00 Bohr mag/cell
     absolute magnetization    =     2.05 Bohr mag/cell

     iteration #  6     ecut=    40.00 Ry     beta= 0.70
     Davidson diagonalization with overlap
     ethr =  2.42E-06,  avg # of iterations =  3.0

     negative rho (up, down):  2.501E-03 1.298E-03

     total cpu time spent up to now is       27.3 secs

     total energy              =     -64.52044338 Ry
     estimated scf accuracy    <       0.00006553 Ry

     total magnetization       =     2.00 Bohr mag/cell
     absolute magnetization    =     2.05 Bohr mag/cell

     iteration #  7     ecut=    40.00 Ry     beta= 0.70
     Davidson diagonalization with overlap
     ethr =  5.46E-07,  avg # of iterations =  3.0

     negative rho (up, down):  2.504E-03 1.291E-03

     total cpu time spent up to now is       31.0 secs

     total energy              =     -64.52046574 Ry
     estimated scf accuracy    <       0.00000413 Ry

     total magnetization       =     2.00 Bohr mag/cell
     absolute magnetization    =     2.05 Bohr mag/cell

     iteration #  8     ecut=    40.00 Ry     beta= 0.70
     Davidson diagonalization with overlap
     ethr =  3.44E-08,  avg # of iterations =  6.5

     negative rho (up, down):  2.502E-03 1.287E-03

     total cpu time spent up to now is       35.5 secs

     total energy              =     -64.52047084 Ry
     estimated scf accuracy    <       0.00000593 Ry

     total magnetization       =     2.00 Bohr mag/cell
     absolute magnetization    =     2.05 Bohr mag/cell

     iteration #  9     ecut=    40.00 Ry     beta= 0.70
     Davidson diagonalization with overlap
     ethr =  3.44E-08,  avg # of iterations =  3.0

     negative rho (up, down):  2.502E-03 1.286E-03

     total cpu time spent up to now is       39.3 secs

     total energy              =     -64.52047219 Ry
     estimated scf accuracy    <       0.00000060 Ry

     total magnetization       =     2.00 Bohr mag/cell
     absolute magnetization    =     2.05 Bohr mag/cell

     iteration # 10     ecut=    40.00 Ry     beta= 0.70
     Davidson diagonalization with overlap
     ethr =  5.02E-09,  avg # of iterations =  7.5

     negative rho (up, down):  2.504E-03 1.286E-03

     total cpu time spent up to now is       44.1 secs

     total energy              =     -64.52047193 Ry
     estimated scf accuracy    <       0.00000394 Ry

     total magnetization       =     2.00 Bohr mag/cell
     absolute magnetization    =     2.05 Bohr mag/cell

     iteration # 11     ecut=    40.00 Ry     beta= 0.70
     Davidson diagonalization with overlap
     ethr =  5.02E-09,  avg # of iterations =  6.0

     negative rho (up, down):  2.504E-03 1.286E-03

     total cpu time spent up to now is       48.3 secs

     total energy              =     -64.52047259 Ry
     estimated scf accuracy    <       0.00000005 Ry

     total magnetization       =     2.00 Bohr mag/cell
     absolute magnetization    =     2.05 Bohr mag/cell

     iteration # 12     ecut=    40.00 Ry     beta= 0.70
     Davidson diagonalization with overlap
     ethr =  3.97E-10,  avg # of iterations =  6.5

     negative rho (up, down):  2.504E-03 1.286E-03

     total cpu time spent up to now is       52.5 secs

     total energy              =     -64.52047263 Ry
     estimated scf accuracy    <       0.00000008 Ry

     total magnetization       =     2.00 Bohr mag/cell
     absolute magnetization    =     2.05 Bohr mag/cell

     iteration # 13     ecut=    40.00 Ry     beta= 0.70
     Davidson diagonalization with overlap
     ethr =  3.97E-10,  avg # of iterations =  3.0

     negative rho (up, down):  2.504E-03 1.286E-03

     Magnetic moment per site  (integrated on atomic sphere of radius R)
     atom   1 (R=0.042)  charge=  2.9185  magn=  0.5656
     atom   2 (R=0.042)  charge=  2.9201  magn=  0.5658

     total cpu time spent up to now is       56.0 secs

     End of self-consistent calculation

 ------ SPIN UP ------------


          k = 0.0000 0.0000 0.0000 ( 24779 PWs)   bands (ev):

   -32.9309 -20.4565 -13.4585 -13.4585 -13.4196  -6.7647  -6.7647

 ------ SPIN DOWN ----------


          k = 0.0000 0.0000 0.0000 ( 24779 PWs)   bands (ev):

   -31.6905 -18.6094 -12.4974 -11.5287 -11.5287  -4.3668  -4.3668

     highest occupied, lowest unoccupied level (ev):    -6.7647   -4.3668

!    total energy              =     -64.52047263 Ry
     estimated scf accuracy    <          5.4E-09 Ry

     The total energy is the sum of the following terms:
     one-electron contribution =    -130.83062023 Ry
     hartree contribution      =      67.31200419 Ry
     xc contribution           =     -14.53624882 Ry
     ewald contribution        =      13.53439223 Ry

     total magnetization       =     2.00 Bohr mag/cell
     absolute magnetization    =     2.05 Bohr mag/cell

     convergence has been achieved in  13 iterations

     negative rho (up, down):  2.504E-03 1.286E-03

     Forces acting on atoms (cartesian axes, Ry/au):

     atom    1 type  1   force =    -0.05612940   -0.00000130   -0.00000130
     atom    2 type  1   force =     0.05612940    0.00000130    0.00000130

     Total force =     0.079379     Total SCF correction =     0.000150

     BFGS Geometry Optimization
     Energy error            =      6.3E-03 Ry
     Gradient error          =      5.6E-02 Ry/Bohr

     number of scf cycles    =   1
     number of bfgs steps    =   0

     energy             new  =     -64.5204726350 Ry

     new trust radius        =       0.0561293952 bohr
     new conv_thr            =       0.0000000100 Ry


ATOMIC_POSITIONS (angstrom)
O                5.9702976032        5.9999993115        5.9999993115
O                7.2397023968        6.0000006885        6.0000006885



     Writing config-only to output data dir ./tmp/o2_ref.save/ :
     XML data file
     NEW-OLD atomic charge density approx. for the potential

     negative rho (up, down):  1.942E-03 2.123E-03
     Generating pointlists ...

     total cpu time spent up to now is       60.2 secs

     per-process dynamical memory:   427.5 Mb

     Self-consistent Calculation

     iteration #  1     ecut=    40.00 Ry     beta= 0.70
     Davidson diagonalization with overlap
     ethr =  1.00E-06,  avg # of iterations = 11.0

     negative rho (up, down):  3.134E-03 2.520E-03

     total cpu time spent up to now is       65.3 secs

     total energy              =     -64.51674116 Ry
     estimated scf accuracy    <       0.00296046 Ry

     total magnetization       =     2.00 Bohr mag/cell
     absolute magnetization    =     2.05 Bohr mag/cell

     iteration #  2     ecut=    40.00 Ry     beta= 0.70
     Davidson diagonalization with overlap
     ethr =  2.47E-05,  avg # of iterations =  2.0

     negative rho (up, down):  2.530E-03 1.466E-03

     total cpu time spent up to now is       68.8 secs

     total energy              =     -64.51739277 Ry
     estimated scf accuracy    <       0.00007261 Ry

     total magnetization       =     2.00 Bohr mag/cell
     absolute magnetization    =     2.05 Bohr mag/cell

     iteration #  3     ecut=    40.00 Ry     beta= 0.70
     Davidson diagonalization with overlap
     ethr =  6.05E-07,  avg # of iterations =  7.5

     negative rho (up, down):  2.536E-03 1.353E-03

     total cpu time spent up to now is       73.3 secs

     total energy              =     -64.51753121 Ry
     estimated scf accuracy    <       0.00028335 Ry

     total magnetization       =     2.00 Bohr mag/cell
     absolute magnetization    =     2.05 Bohr mag/cell

     iteration #  4     ecut=    40.00 Ry     beta= 0.70
     Davidson diagonalization with overlap
     ethr =  6.05E-07,  avg # of iterations =  4.5

     negative rho (up, down):  2.461E-03 1.226E-03

     total cpu time spent up to now is       77.2 secs

     total energy              =     -64.51760634 Ry
     estimated scf accuracy    <       0.00000777 Ry

     total magnetization       =     2.00 Bohr mag/cell
     absolute magnetization    =     2.05 Bohr mag/cell

     iteration #  5     ecut=    40.00 Ry     beta= 0.70
     Davidson diagonalization with overlap
     ethr =  6.48E-08,  avg # of iterations =  4.0

     negative rho (up, down):  2.458E-03 1.218E-03

     total cpu time spent up to now is       80.8 secs

     total energy              =     -64.51760882 Ry
     estimated scf accuracy    <       0.00000121 Ry

     total magnetization       =     2.00 Bohr mag/cell
     absolute magnetization    =     2.05 Bohr mag/cell

     iteration #  6     ecut=    40.00 Ry     beta= 0.70
     Davidson diagonalization with overlap
     ethr =  1.01E-08,  avg # of iterations =  4.0

     negative rho (up, down):  2.458E-03 1.216E-03

     total cpu time spent up to now is       84.7 secs

     total energy              =     -64.51760936 Ry
     estimated scf accuracy    <       0.00000175 Ry

     total magnetization       =     2.00 Bohr mag/cell
     absolute magnetization    =     2.05 Bohr mag/cell

     iteration #  7     ecut=    40.00 Ry     beta= 0.70
     Davidson diagonalization with overlap
     ethr =  1.01E-08,  avg # of iterations =  1.5

     negative rho (up, down):  2.457E-03 1.216E-03

     total cpu time spent up to now is       88.1 secs

     total energy              =     -64.51760965 Ry
     estimated scf accuracy    <       0.00000005 Ry

     total magnetization       =     2.00 Bohr mag/cell
     absolute magnetization    =     2.05 Bohr mag/cell

     iteration #  8     ecut=    40.00 Ry     beta= 0.70
     Davidson diagonalization with overlap
     ethr =  4.19E-10,  avg # of iterations =  7.5

     negative rho (up, down):  2.458E-03 1.216E-03

     total cpu time spent up to now is       92.6 secs

     total energy              =     -64.51760965 Ry
     estimated scf accuracy    <       0.00000037 Ry

     total magnetization       =     2.00 Bohr mag/cell
     absolute magnetization    =     2.05 Bohr mag/cell

     iteration #  9     ecut=    40.00 Ry     beta= 0.70
     Davidson diagonalization with overlap
     ethr =  4.19E-10,  avg # of iterations =  6.0

     negative rho (up, down):  2.457E-03 1.216E-03

     total cpu time spent up to now is       96.8 secs

     total energy              =     -64.51760969 Ry
     estimated scf accuracy    <       0.00000002 Ry

     total magnetization       =     2.00 Bohr mag/cell
     absolute magnetization    =     2.05 Bohr mag/cell

     iteration # 10     ecut=    40.00 Ry     beta= 0.70
     Davidson diagonalization with overlap
     ethr =  1.54E-10,  avg # of iterations =  4.5

     negative rho (up, down):  2.457E-03 1.216E-03

     Magnetic moment per site  (integrated on atomic sphere of radius R)
     atom   1 (R=0.042)  charge=  2.8853  magn=  0.5672
     atom   2 (R=0.042)  charge=  2.8842  magn=  0.5669

     total cpu time spent up to now is      100.7 secs

     End of self-consistent calculation

 ------ SPIN UP ------------


          k = 0.0000 0.0000 0.0000 ( 24779 PWs)   bands (ev):

   -31.7375 -20.9355 -13.2661 -12.9626 -12.9626  -7.2142  -7.2142

 ------ SPIN DOWN ----------


          k = 0.0000 0.0000 0.0000 ( 24779 PWs)   bands (ev):

   -30.4501 -19.0815 -12.3854 -11.0278 -11.0278  -4.8292  -4.8292

     highest occupied, lowest unoccupied level (ev):    -7.2142   -4.8292

!    total energy              =     -64.51760970 Ry
     estimated scf accuracy    <          8.1E-09 Ry

     The total energy is the sum of the following terms:
     one-electron contribution =    -128.16949640 Ry
     hartree contribution      =      66.01996710 Ry
     xc contribution           =     -14.43593048 Ry
     ewald contribution        =      12.06785007 Ry

     total magnetization       =     2.00 Bohr mag/cell
     absolute magnetization    =     2.05 Bohr mag/cell

     convergence has been achieved in  10 iterations

     negative rho (up, down):  2.457E-03 1.216E-03

     Forces acting on atoms (cartesian axes, Ry/au):

     atom    1 type  1   force =     0.09647196    0.00000477    0.00000477
     atom    2 type  1   force =    -0.09647196   -0.00000477   -0.00000477

     Total force =     0.136432     Total SCF correction =     0.000192
     Energy error            =      2.9E-03 Ry
     Gradient error          =      9.6E-02 Ry/Bohr

     number of scf cycles    =   2
     number of bfgs steps    =   1

     energy             old  =     -64.5204726350 Ry
     energy             new  =     -64.5176097031 Ry

     CASE: energy            _new > energy            _old

     new trust radius        =       0.0192969372 bohr
     new conv_thr            =       0.0000000100 Ry


ATOMIC_POSITIONS (angstrom)
O                5.9897885006        5.9999997633        5.9999997633
O                7.2202114994        6.0000002367        6.0000002367



     Writing config-only to output data dir ./tmp/o2_ref.save/ :
     XML data file
     NEW-OLD atomic charge density approx. for the potential

     negative rho (up, down):  2.092E-03 1.895E-03
     Generating pointlists ...

     total cpu time spent up to now is      104.8 secs

     per-process dynamical memory:   427.5 Mb

     Self-consistent Calculation

     iteration #  1     ecut=    40.00 Ry     beta= 0.70
     Davidson diagonalization with overlap
     ethr =  1.00E-06,  avg # of iterations = 10.0

     negative rho (up, down):  2.634E-03 1.680E-03

     total cpu time spent up to now is      110.3 secs

     total energy              =     -64.52110004 Ry
     estimated scf accuracy    <       0.00124492 Ry

     total magnetization       =     2.00 Bohr mag/cell
     absolute magnetization    =     2.05 Bohr mag/cell

     iteration #  2     ecut=    40.00 Ry     beta= 0.70
     Davidson diagonalization with overlap
     ethr =  1.04E-05,  avg # of iterations =  2.0

     negative rho (up, down):  2.506E-03 1.346E-03

     total cpu time spent up to now is      113.9 secs

     total energy              =     -64.52137385 Ry
     estimated scf accuracy    <       0.00003116 Ry

     total magnetization       =     2.00 Bohr mag/cell
     absolute magnetization    =     2.05 Bohr mag/cell

     iteration #  3     ecut=    40.00 Ry     beta= 0.70
     Davidson diagonalization with overlap
     ethr =  2.60E-07,  avg # of iterations =  7.5

     negative rho (up, down):  2.505E-03 1.299E-03

     total cpu time spent up to now is      118.3 secs

     total energy              =     -64.52141671 Ry
     estimated scf accuracy    <       0.00010857 Ry

     total magnetization       =     2.00 Bohr mag/cell
     absolute magnetization    =     2.05 Bohr mag/cell

     iteration #  4     ecut=    40.00 Ry     beta= 0.70
     Davidson diagonalization with overlap
     ethr =  2.60E-07,  avg # of iterations =  6.0

     negative rho (up, down):  2.480E-03 1.261E-03

     total cpu time spent up to now is      122.3 secs

     total energy              =     -64.52145591 Ry
     estimated scf accuracy    <       0.00001710 Ry

     total magnetization       =     2.00 Bohr mag/cell
     absolute magnetization    =     2.05 Bohr mag/cell

     iteration #  5     ecut=    40.00 Ry     beta= 0.70
     Davidson diagonalization with overlap
     ethr =  1.43E-07,  avg # of iterations =  1.5

     negative rho (up, down):  2.482E-03 1.258E-03

     total cpu time spent up to now is      125.7 secs

     total energy              =     -64.52145306 Ry
     estimated scf accuracy    <       0.00000763 Ry

     total magnetization       =     2.00 Bohr mag/cell
     absolute magnetization    =     2.05 Bohr mag/cell

     iteration #  6     ecut=    40.00 Ry     beta= 0.70
     Davidson diagonalization with overlap
     ethr =  6.36E-08,  avg # of iterations =  2.0

     negative rho (up, down):  2.483E-03 1.257E-03

     total cpu time spent up to now is      129.4 secs

     total energy              =     -64.52145558 Ry
     estimated scf accuracy    <       0.00000022 Ry

     total magnetization       =     2.00 Bohr mag/cell
     absolute magnetization    =     2.05 Bohr mag/cell

     iteration #  7     ecut=    40.00 Ry     beta= 0.70
     Davidson diagonalization with overlap
     ethr =  1.83E-09,  avg # of iterations =  8.5

     negative rho (up, down):  2.483E-03 1.256E-03

     total cpu time spent up to now is      133.9 secs

     total energy              =     -64.52145613 Ry
     estimated scf accuracy    <       0.00000073 Ry

     total magnetization       =     2.00 Bohr mag/cell
     absolute magnetization    =     2.05 Bohr mag/cell

     iteration #  8     ecut=    40.00 Ry     beta= 0.70
     Davidson diagonalization with overlap
     ethr =  1.83E-09,  avg # of iterations =  1.5

     negative rho (up, down):  2.482E-03 1.256E-03

     total cpu time spent up to now is      137.4 secs

     total energy              =     -64.52145575 Ry
     estimated scf accuracy    <       0.00000052 Ry

     total magnetization       =     2.00 Bohr mag/cell
     absolute magnetization    =     2.05 Bohr mag/cell

     iteration #  9     ecut=    40.00 Ry     beta= 0.70
     Davidson diagonalization with overlap
     ethr =  1.83E-09,  avg # of iterations =  5.0

     negative rho (up, down):  2.482E-03 1.257E-03

     total cpu time spent up to now is      141.4 secs

     total energy              =     -64.52145595 Ry
     estimated scf accuracy    <       0.00000007 Ry

     total magnetization       =     2.00 Bohr mag/cell
     absolute magnetization    =     2.05 Bohr mag/cell

     iteration # 10     ecut=    40.00 Ry     beta= 0.70
     Davidson diagonalization with overlap
     ethr =  5.87E-10,  avg # of iterations =  1.5

     negative rho (up, down):  2.482E-03 1.257E-03

     total cpu time spent up to now is      145.0 secs

     total energy              =     -64.52145593 Ry
     estimated scf accuracy    <       0.00000004 Ry

     total magnetization       =     2.00 Bohr mag/cell
     absolute magnetization    =     2.05 Bohr mag/cell

     iteration # 11     ecut=    40.00 Ry     beta= 0.70
     Davidson diagonalization with overlap
     ethr =  3.37E-10,  avg # of iterations =  3.0

     negative rho (up, down):  2.482E-03 1.257E-03

     Magnetic moment per site  (integrated on atomic sphere of radius R)
     atom   1 (R=0.042)  charge=  2.9062  magn=  0.5664
     atom   2 (R=0.042)  charge=  2.9063  magn=  0.5664

     total cpu time spent up to now is      148.6 secs

     End of self-consistent calculation

 ------ SPIN UP ------------


          k = 0.0000 0.0000 0.0000 ( 24779 PWs)   bands (ev):

   -32.5032 -20.6238 -13.3668 -13.2793 -13.2793  -6.9271  -6.9271

 ------ SPIN DOWN ----------


          k = 0.0000 0.0000 0.0000 ( 24779 PWs)   bands (ev):

   -31.2465 -18.7740 -12.4592 -11.3477 -11.3477  -4.5331  -4.5331

     highest occupied, lowest unoccupied level (ev):    -6.9271   -4.5331

!    total energy              =     -64.52145594 Ry
     estimated scf accuracy    <          4.2E-10 Ry

     The total energy is the sum of the following terms:
     one-electron contribution =    -129.89301920 Ry
     hartree contribution      =      66.85777920 Ry
     xc contribution           =     -14.50032993 Ry
     ewald contribution        =      13.01411399 Ry

     total magnetization       =     2.00 Bohr mag/cell
     absolute magnetization    =     2.05 Bohr mag/cell

     convergence has been achieved in  11 iterations

     negative rho (up, down):  2.482E-03 1.257E-03

     Forces acting on atoms (cartesian axes, Ry/au):

     atom    1 type  1   force =     0.00370109    0.00000245    0.00000245
     atom    2 type  1   force =    -0.00370109   -0.00000245   -0.00000245

     Total force =     0.005234     Total SCF correction =     0.000088
     Energy error            =      9.8E-04 Ry
     Gradient error          =      3.7E-03 Ry/Bohr

     number of scf cycles    =   3
     number of bfgs steps    =   1

     energy             old  =     -64.5204726350 Ry
     energy             new  =     -64.5214559423 Ry

     CASE: energy            _new < energy            _old

     new trust radius        =       0.0011937035 bohr
     new conv_thr            =       0.0000000010 Ry


ATOMIC_POSITIONS (angstrom)
O                5.9904201791        6.0000009517        6.0000009517
O                7.2195798209        5.9999990483        5.9999990483



     Writing config-only to output data dir ./tmp/o2_ref.save/ :
     XML data file
     NEW-OLD atomic charge density approx. for the potential

     negative rho (up, down):  1.894E-03 1.851E-03
     Generating pointlists ...

     total cpu time spent up to now is      153.5 secs

     per-process dynamical memory:   427.5 Mb

     Self-consistent Calculation

     iteration #  1     ecut=    40.00 Ry     beta= 0.70
     Davidson diagonalization with overlap
     ethr =  1.00E-06,  avg # of iterations =  2.0

     Threshold (ethr) on eigenvalues was too large:
     Diagonalizing with lowered threshold

     Davidson diagonalization with overlap
     ethr =  1.43E-08,  avg # of iterations =  5.0

     negative rho (up, down):  2.351E-03 1.395E-03

     total cpu time spent up to now is      159.0 secs

     total energy              =     -64.52146027 Ry
     estimated scf accuracy    <       0.00000145 Ry

     total magnetization       =     2.00 Bohr mag/cell
     absolute magnetization    =     2.05 Bohr mag/cell

     iteration #  2     ecut=    40.00 Ry     beta= 0.70
     Davidson diagonalization with overlap
     ethr =  1.21E-08,  avg # of iterations =  3.5

     negative rho (up, down):  2.436E-03 1.306E-03

     total cpu time spent up to now is      162.6 secs

     total energy              =     -64.52146066 Ry
     estimated scf accuracy    <       0.00000008 Ry

     total magnetization       =     2.00 Bohr mag/cell
     absolute magnetization    =     2.05 Bohr mag/cell

     iteration #  3     ecut=    40.00 Ry     beta= 0.70
     Davidson diagonalization with overlap
     ethr =  6.51E-10,  avg # of iterations =  4.5

     negative rho (up, down):  2.468E-03 1.274E-03

     total cpu time spent up to now is      166.5 secs

     total energy              =     -64.52146067 Ry
     estimated scf accuracy    <       0.00000004 Ry

     total magnetization       =     2.00 Bohr mag/cell
     absolute magnetization    =     2.05 Bohr mag/cell

     iteration #  4     ecut=    40.00 Ry     beta= 0.70
     Davidson diagonalization with overlap
     ethr =  3.01E-10,  avg # of iterations =  2.5

     negative rho (up, down):  2.480E-03 1.261E-03

     total cpu time spent up to now is      170.1 secs

     total energy              =     -64.52146067 Ry
     estimated scf accuracy    <       0.00000002 Ry

     total magnetization       =     2.00 Bohr mag/cell
     absolute magnetization    =     2.05 Bohr mag/cell

     iteration #  5     ecut=    40.00 Ry     beta= 0.70
     Davidson diagonalization with overlap
     ethr =  1.84E-10,  avg # of iterations =  2.0

     negative rho (up, down):  2.483E-03 1.259E-03

     total cpu time spent up to now is      173.6 secs

     total energy              =     -64.52146067 Ry
     estimated scf accuracy    <          6.0E-09 Ry

     total magnetization       =     2.00 Bohr mag/cell
     absolute magnetization    =     2.05 Bohr mag/cell

     iteration #  6     ecut=    40.00 Ry     beta= 0.70
     Davidson diagonalization with overlap
     ethr =  4.99E-11,  avg # of iterations =  3.0

     negative rho (up, down):  2.483E-03 1.258E-03

     Magnetic moment per site  (integrated on atomic sphere of radius R)
     atom   1 (R=0.042)  charge=  2.9069  magn=  0.5664
     atom   2 (R=0.042)  charge=  2.9071  magn=  0.5664

     total cpu time spent up to now is      177.0 secs

     End of self-consistent calculation

 ------ SPIN UP ------------


          k = 0.0000 0.0000 0.0000 ( 24779 PWs)   bands (ev):

   -32.5293 -20.6138 -13.3703 -13.2902 -13.2902  -6.9174  -6.9174

 ------ SPIN DOWN ----------


          k = 0.0000 0.0000 0.0000 ( 24779 PWs)   bands (ev):

   -31.2735 -18.7640 -12.4617 -11.3587 -11.3587  -4.5231  -4.5231

     highest occupied, lowest unoccupied level (ev):    -6.9174   -4.5231

!    total energy              =     -64.52146067 Ry
     estimated scf accuracy    <          4.4E-10 Ry

     The total energy is the sum of the following terms:
     one-electron contribution =    -129.95038377 Ry
     hartree contribution      =      66.88565885 Ry
     xc contribution           =     -14.50252871 Ry
     ewald contribution        =      13.04579297 Ry

     total magnetization       =     2.00 Bohr mag/cell
     absolute magnetization    =     2.05 Bohr mag/cell

     convergence has been achieved in   6 iterations

     negative rho (up, down):  2.483E-03 1.258E-03

     Forces acting on atoms (cartesian axes, Ry/au):

     atom    1 type  1   force =     0.00023691   -0.00000104   -0.00000104
     atom    2 type  1   force =    -0.00023691    0.00000104    0.00000104

     Total force =     0.000335     Total SCF correction =     0.000026
     Energy error            =      4.7E-06 Ry
     Gradient error          =      2.4E-04 Ry/Bohr

     number of scf cycles    =   4
     number of bfgs steps    =   2

     energy             old  =     -64.5214559423 Ry
     energy             new  =     -64.5214606689 Ry

     CASE: energy            _new < energy            _old

     small trust_radius: resetting bfgs history

     new trust radius        =       0.0001000000 bohr
     new conv_thr            =            1.0E-10 Ry


ATOMIC_POSITIONS (angstrom)
O                5.9904730958        6.0000007192        6.0000007192
O                7.2195269042        5.9999992808        5.9999992808



     Writing config-only to output data dir ./tmp/o2_ref.save/ :
     XML data file
     NEW-OLD atomic charge density approx. for the potential

     negative rho (up, down):  1.889E-03 1.851E-03
     Generating pointlists ...

     total cpu time spent up to now is      181.1 secs

     per-process dynamical memory:   427.5 Mb

     Self-consistent Calculation

     iteration #  1     ecut=    40.00 Ry     beta= 0.70
     Davidson diagonalization with overlap
     ethr =  1.00E-06,  avg # of iterations =  2.0

     Threshold (ethr) on eigenvalues was too large:
     Diagonalizing with lowered threshold

     Davidson diagonalization with overlap
     ethr =  8.78E-11,  avg # of iterations =  5.5

     negative rho (up, down):  2.348E-03 1.395E-03

     total cpu time spent up to now is      186.6 secs

     total energy              =     -64.52146078 Ry
     estimated scf accuracy    <          7.1E-09 Ry

     total magnetization       =     2.00 Bohr mag/cell
     absolute magnetization    =     2.05 Bohr mag/cell

     iteration #  2     ecut=    40.00 Ry     beta= 0.70
     Davidson diagonalization with overlap
     ethr =  5.92E-11,  avg # of iterations =  3.5

     negative rho (up, down):  2.428E-03 1.314E-03

     total cpu time spent up to now is      190.3 secs

     total energy              =     -64.52146074 Ry
     estimated scf accuracy    <          1.6E-09 Ry

     total magnetization       =     2.00 Bohr mag/cell
     absolute magnetization    =     2.05 Bohr mag/cell

     iteration #  3     ecut=    40.00 Ry     beta= 0.70
     Davidson diagonalization with overlap
     ethr =  1.37E-11,  avg # of iterations =  2.5

     negative rho (up, down):  2.455E-03 1.286E-03

     total cpu time spent up to now is      193.8 secs

     total energy              =     -64.52146072 Ry
     estimated scf accuracy    <          1.5E-09 Ry

     total magnetization       =     2.00 Bohr mag/cell
     absolute magnetization    =     2.05 Bohr mag/cell

     iteration #  4     ecut=    40.00 Ry     beta= 0.70
     Davidson diagonalization with overlap
     ethr =  1.26E-11,  avg # of iterations =  1.5

     negative rho (up, down):  2.483E-03 1.258E-03

     Magnetic moment per site  (integrated on atomic sphere of radius R)
     atom   1 (R=0.042)  charge=  2.9069  magn=  0.5664
     atom   2 (R=0.042)  charge=  2.9072  magn=  0.5663

     total cpu time spent up to now is      197.1 secs

     End of self-consistent calculation

 ------ SPIN UP ------------


          k = 0.0000 0.0000 0.0000 ( 24779 PWs)   bands (ev):

   -32.5313 -20.6127 -13.3704 -13.2910 -13.2910  -6.9165  -6.9165

 ------ SPIN DOWN ----------


          k = 0.0000 0.0000 0.0000 ( 24779 PWs)   bands (ev):

   -31.2756 -18.7631 -12.4618 -11.3595 -11.3595  -4.5222  -4.5222

     highest occupied, lowest unoccupied level (ev):    -6.9165   -4.5222

!    total energy              =     -64.52146069 Ry
     estimated scf accuracy    <          5.7E-11 Ry

     The total energy is the sum of the following terms:
     one-electron contribution =    -129.95505207 Ry
     hartree contribution      =      66.88782083 Ry
     xc contribution           =     -14.50267920 Ry
     ewald contribution        =      13.04844975 Ry

     total magnetization       =     2.00 Bohr mag/cell
     absolute magnetization    =     2.05 Bohr mag/cell

     convergence has been achieved in   4 iterations

     negative rho (up, down):  2.483E-03 1.258E-03

     Forces acting on atoms (cartesian axes, Ry/au):

     atom    1 type  1   force =    -0.00005151    0.00000042    0.00000042
     atom    2 type  1   force =     0.00005151   -0.00000042   -0.00000042

     Total force =     0.000073     Total SCF correction =     0.000006
     Energy error            =      2.2E-08 Ry
     Gradient error          =      5.2E-05 Ry/Bohr

     bfgs converged in   5 scf cycles and   3 bfgs steps
     (criteria: energy <  1.0E-04 Ry, force <  1.0E-04 Ry/Bohr)

     End of BFGS Geometry Optimization

     Final energy             =     -64.5214606905 Ry

     File ./tmp/o2_ref.bfgs deleted, as requested
Begin final coordinates

ATOMIC_POSITIONS (angstrom)
O                5.9904730958        6.0000007192        6.0000007192
O                7.2195269042        5.9999992808        5.9999992808
End final coordinates



     Writing all to output data dir ./tmp/o2_ref.save/ :
     XML data file, charge density, pseudopotentials, collected wavefunctions

     init_run     :      4.57s CPU      4.29s WALL (       1 calls)
     electrons    :    350.12s CPU    176.06s WALL (       5 calls)
     update_pot   :      5.41s CPU      5.90s WALL (       4 calls)
     forces       :     13.31s CPU      9.73s WALL (       5 calls)

     Called by init_run:
     wfcinit      :      0.91s CPU      0.65s WALL (       1 calls)
     potinit      :      1.99s CPU      2.15s WALL (       1 calls)
     hinit0       :      0.97s CPU      1.00s WALL (       1 calls)

     Called by electrons:
     c_bands      :    129.38s CPU     41.83s WALL (      46 calls)
     sum_band     :    124.79s CPU     48.65s WALL (      46 calls)
     v_of_rho     :     57.51s CPU     62.27s WALL (      49 calls)
     newd         :     28.64s CPU     16.95s WALL (      49 calls)
     mix_rho      :      6.76s CPU      6.87s WALL (      46 calls)

     Called by c_bands:
     init_us_2    :      4.07s CPU      0.87s WALL (     196 calls)
     regterg      :    124.97s CPU     40.95s WALL (      92 calls)

     Called by *egterg:
     rdiaghg      :     15.56s CPU      2.26s WALL (     468 calls)
     h_psi        :     82.85s CPU     35.47s WALL (     482 calls)
     s_psi        :      3.76s CPU      0.52s WALL (     482 calls)
     g_psi        :      1.80s CPU      0.25s WALL (     388 calls)

     Called by h_psi:
     h_psi:calbec :      0.71s CPU      0.47s WALL (     482 calls)
     vloc_psi     :     78.05s CPU     34.23s WALL (     482 calls)
                                        0.00s GPU  (     482 calls)
     add_vuspsi   :      2.86s CPU      0.59s WALL (     482 calls)

     General routines
     calbec       :      0.82s CPU      0.58s WALL (     614 calls)
     fft          :     24.61s CPU     24.56s WALL (     953 calls)
     ffts         :      1.92s CPU      1.93s WALL (     144 calls)
     fftw         :     47.86s CPU     25.96s WALL (    3176 calls)
     interpolate  :      5.74s CPU      5.82s WALL (      98 calls)

     Parallel routines

     PWSCF        :   6m16.95s CPU   3m19.60s WALL


   This run was terminated on:  13:18:35   8May2026            

=------------------------------------------------------------------------------=
   JOB DONE.
=------------------------------------------------------------------------------=
