
     Program PWSCF v.7.5 starts on 25May2026 at 13:42:59 

     This program is part of the open-source Quantum ESPRESSO suite
     for quantum simulation of materials; please cite
         "P. Giannozzi et al., J. Phys.:Condens. Matter 21 395502 (2009);
         "P. Giannozzi et al., J. Phys.:Condens. Matter 29 465901 (2017);
         "P. Giannozzi et al., J. Chem. Phys. 152 154105 (2020);
          URL http://www.quantum-espresso.org", 
     in publications or presentations arising from this work. More details at
     http://www.quantum-espresso.org/quote

     Parallel version (MPI), running on     1 processors

     MPI processes distributed on     1 nodes
     4040 MiB available memory on the printing compute node when the environment starts

     Waiting for input...
     Reading input from standard input
Warning: card EOF ignored

     Current dimensions of program PWSCF are:
     Max number of different atomic species (ntypx) = 10
     Max number of k-points (npk) =  40000
     Max angular momentum in pseudopotentials (lmaxx) =  4
     file Zn.UPF: wavefunction(s)  3D renormalized
     Found identity + (  0.0000 -0.5000  0.0000) symmetry
     This is a supercell, fractional translations are disabled
     Message from routine setup:
     using ibrav=0 with symmetry is DISCOURAGED, use correct ibrav instead

     Subspace diagonalization in iterative solution of the eigenvalue problem:
     a serial algorithm will be used


     G-vector sticks info
     --------------------
     sticks:   dense  smooth     PW     G-vecs:    dense   smooth      PW
     Sum        2965    1495    421               638927   226135   32759

     Using Slab Decomposition



     bravais-lattice index     =            0
     lattice parameter (alat)  =      11.6059  a.u.
     unit-cell volume          =    6613.1987 (a.u.)^3
     number of atoms/cell      =           32
     number of atomic types    =            2
     number of electrons       =       288.00
     number of Kohn-Sham states=          173
     kinetic-energy cutoff     =      40.0000  Ry
     charge density cutoff     =     320.0000  Ry
     scf convergence threshold =      1.0E-06
     mixing beta               =       0.3000
     number of iterations used =            8  local-TF  mixing
     energy convergence thresh.=      1.0E-04
     force convergence thresh. =      1.0E-03
     Exchange-correlation= PBE
                           (   1   4   3   4   0   0   0)
     nstep                     =           50


     celldm(1)=  11.605942  celldm(2)=   0.000000  celldm(3)=   0.000000
     celldm(4)=   0.000000  celldm(5)=   0.000000  celldm(6)=   0.000000

     crystal axes: (cart. coord. in units of alat)
               a(1) = (   1.000000   0.000000   0.000000 )  
               a(2) = (  -0.500000   0.866025   0.000000 )  
               a(3) = (   0.000000   0.000000   4.884721 )  

     reciprocal axes: (cart. coord. in units 2 pi/alat)
               b(1) = (  1.000000  0.577350 -0.000000 )  
               b(2) = (  0.000000  1.154700  0.000000 )  
               b(3) = (  0.000000 -0.000000  0.204720 )  


     PseudoPot. # 1 for Zn read from file:
     /home/nour/05-ZnO-Slab-Pure/Zn.UPF
     MD5 check sum: c4fdec089fdc15c46897c8a96be99b2c
     Pseudo is Ultrasoft + core correction, Zval = 12.0
     Generated using &quot;atomic&quot; code by A. Dal Corso  v.6.2.2
     Using radial grid of 1201 points,  6 beta functions with: 
                l(1) =   0
                l(2) =   0
                l(3) =   1
                l(4) =   1
                l(5) =   2
                l(6) =   2
     Q(r) pseudized with 0 coefficients 


     PseudoPot. # 2 for O  read from file:
     /home/nour/05-ZnO-Slab-Pure/O.UPF
     MD5 check sum: b15f85fac327ccb5e22ba8b88818af9f
     Pseudo is Ultrasoft + core correction, Zval =  6.0
     Generated using &quot;atomic&quot; code by A. Dal Corso  v.6.3MaX
     Using radial grid of 1095 points,  4 beta functions with: 
                l(1) =   0
                l(2) =   0
                l(3) =   1
                l(4) =   1
     Q(r) pseudized with 0 coefficients 


     atomic species   valence    mass     pseudopotential
     Zn               12.00    65.38000     Zn( 1.00)
     O                 6.00    16.00000     O ( 1.00)

      6 Sym. Ops. (no inversion) found



   Cartesian axes

     site n.     atom                  positions (alat units)
         1        Zn     tau(   1) = (  -0.0000003   0.2886753   0.0008521  )
         2        Zn     tau(   2) = (  -0.2500003   0.7216880   0.0008521  )
         3        Zn     tau(   3) = (   0.4999997   0.2886753   0.0008521  )
         4        Zn     tau(   4) = (   0.2499997   0.7216880   0.0008521  )
         5        O      tau(   5) = (  -0.0000003   0.2886753   0.3050228  )
         6        O      tau(   6) = (  -0.2500003   0.7216880   0.3050228  )
         7        O      tau(   7) = (   0.4999997   0.2886753   0.3050228  )
         8        O      tau(   8) = (   0.2499997   0.7216880   0.3050228  )
         9        Zn     tau(   9) = (   0.2500003   0.1443375   0.4012119  )
        10        Zn     tau(  10) = (   0.0000003   0.5773502   0.4012119  )
        11        Zn     tau(  11) = (   0.7500003   0.1443375   0.4012119  )
        12        Zn     tau(  12) = (   0.5000003   0.5773502   0.4012119  )
        13        O      tau(  13) = (   0.2500003   0.1443375   0.7053826  )
        14        O      tau(  14) = (   0.0000003   0.5773502   0.7053826  )
        15        O      tau(  15) = (   0.7500003   0.1443375   0.7053826  )
        16        O      tau(  16) = (   0.5000003   0.5773502   0.7053826  )
        17        Zn     tau(  17) = (  -0.0000003   0.2886753   0.8015717  )
        18        Zn     tau(  18) = (  -0.2500003   0.7216880   0.8015717  )
        19        Zn     tau(  19) = (   0.4999997   0.2886753   0.8015717  )
        20        Zn     tau(  20) = (   0.2499997   0.7216880   0.8015717  )
        21        O      tau(  21) = (  -0.0000003   0.2886753   1.1057425  )
        22        O      tau(  22) = (  -0.2500003   0.7216880   1.1057425  )
        23        O      tau(  23) = (   0.4999997   0.2886753   1.1057425  )
        24        O      tau(  24) = (   0.2499997   0.7216880   1.1057425  )
        25        Zn     tau(  25) = (   0.2500003   0.1443375   1.2019316  )
        26        Zn     tau(  26) = (   0.0000003   0.5773502   1.2019316  )
        27        Zn     tau(  27) = (   0.7500003   0.1443375   1.2019316  )
        28        Zn     tau(  28) = (   0.5000003   0.5773502   1.2019316  )
        29        O      tau(  29) = (   0.2500003   0.1443375   1.5061023  )
        30        O      tau(  30) = (   0.0000003   0.5773502   1.5061023  )
        31        O      tau(  31) = (   0.7500003   0.1443375   1.5061023  )
        32        O      tau(  32) = (   0.5000003   0.5773502   1.5061023  )

     number of k points=     4  Marzari-Vanderbilt smearing, width (Ry)=  0.0100
                       cart. coord. in units 2pi/alat
        k(    1) = (   0.0000000   0.0000000   0.0000000), wk =   0.1250000
        k(    2) = (   0.0000000   0.2886751   0.0000000), wk =   0.7500000
        k(    3) = (   0.0000000  -0.5773502   0.0000000), wk =   0.3750000
        k(    4) = (   0.2500000   0.4330127   0.0000000), wk =   0.7500000

     Dense  grid:   638927 G-vectors     FFT dimensions: (  72,  72, 324)

     Smooth grid:   226135 G-vectors     FFT dimensions: (  48,  48, 240)

     Estimated max dynamical RAM per process >       3.14 GB

     Check: negative core charge=   -0.000001

     Initial potential from superposition of free atoms

     starting charge     287.9404, renormalised to     288.0000

     negative rho (up, down):  2.786E-03 0.000E+00
     Starting wfcs are  208 randomized atomic wfcs

     total cpu time spent up to now is       19.3 secs

     per-process dynamical memory:   875.0 Mb

     Self-consistent Calculation

     iteration #  1     ecut=    40.00 Ry     beta= 0.30
     Davidson diagonalization with overlap
     ethr =  1.00E-02,  avg # of iterations =  3.2

     negative rho (up, down):  1.066E-02 0.000E+00

     total cpu time spent up to now is       64.9 secs

     total energy              =   -2890.81420760 Ry
     estimated scf accuracy    <      39.74977207 Ry

     iteration #  2     ecut=    40.00 Ry     beta= 0.30
     Davidson diagonalization with overlap
     ethr =  1.00E-02,  avg # of iterations =  1.0

     negative rho (up, down):  2.345E-02 0.000E+00

     total cpu time spent up to now is      104.1 secs

     total energy              =   -2890.75946612 Ry
     estimated scf accuracy    <       4.96431377 Ry

     iteration #  3     ecut=    40.00 Ry     beta= 0.30
     Davidson diagonalization with overlap
     ethr =  1.72E-03,  avg # of iterations =  2.0

     negative rho (up, down):  4.339E-02 0.000E+00

     total cpu time spent up to now is      144.2 secs

     total energy              =   -2890.79148984 Ry
     estimated scf accuracy    <       2.42128038 Ry

     iteration #  4     ecut=    40.00 Ry     beta= 0.30
     Davidson diagonalization with overlap
     ethr =  8.41E-04,  avg # of iterations =  2.0

     negative rho (up, down):  6.785E-02 0.000E+00

     total cpu time spent up to now is      183.1 secs

     total energy              =   -2890.86418634 Ry
     estimated scf accuracy    <       0.93976237 Ry

     iteration #  5     ecut=    40.00 Ry     beta= 0.30
     Davidson diagonalization with overlap
     c_bands:  1 eigenvalues not converged
     c_bands:  2 eigenvalues not converged
     c_bands:  2 eigenvalues not converged
     c_bands:  4 eigenvalues not converged
     ethr =  3.26E-04,  avg # of iterations = 20.0

     negative rho (up, down):  7.819E-02 0.000E+00

     total cpu time spent up to now is      237.5 secs

     total energy              =   -2890.89611072 Ry
     estimated scf accuracy    <       0.37881658 Ry

     iteration #  6     ecut=    40.00 Ry     beta= 0.30
     Davidson diagonalization with overlap
     c_bands:  1 eigenvalues not converged
     ethr =  1.32E-04,  avg # of iterations =  8.5

     negative rho (up, down):  7.700E-02 0.000E+00

     total cpu time spent up to now is      280.5 secs

     total energy              =   -2890.90014341 Ry
     estimated scf accuracy    <       0.13296564 Ry

     iteration #  7     ecut=    40.00 Ry     beta= 0.30
     Davidson diagonalization with overlap
     ethr =  4.62E-05,  avg # of iterations =  3.8

     negative rho (up, down):  7.660E-02 0.000E+00

     total cpu time spent up to now is      320.7 secs

     total energy              =   -2890.91900448 Ry
     estimated scf accuracy    <       0.69124692 Ry

     iteration #  8     ecut=    40.00 Ry     beta= 0.30
     Davidson diagonalization with overlap
     ethr =  4.62E-05,  avg # of iterations =  1.0

     negative rho (up, down):  7.069E-02 0.000E+00

     total cpu time spent up to now is      361.0 secs

     total energy              =   -2890.92034746 Ry
     estimated scf accuracy    <       1.28976821 Ry

     iteration #  9     ecut=    40.00 Ry     beta= 0.30
     Davidson diagonalization with overlap
     ethr =  4.62E-05,  avg # of iterations =  1.8

     negative rho (up, down):  4.914E-02 0.000E+00

     total cpu time spent up to now is      397.0 secs

     total energy              =   -2890.88535084 Ry
     estimated scf accuracy    <       1.39418306 Ry

     iteration # 10     ecut=    40.00 Ry     beta= 0.30
     Davidson diagonalization with overlap
     ethr =  4.62E-05,  avg # of iterations = 11.8

     negative rho (up, down):  4.708E-02 0.000E+00

     total cpu time spent up to now is      439.3 secs

     total energy              =   -2890.90419158 Ry
     estimated scf accuracy    <       0.20406569 Ry

     iteration # 11     ecut=    40.00 Ry     beta= 0.30
     Davidson diagonalization with overlap
     ethr =  4.62E-05,  avg # of iterations =  1.5

     negative rho (up, down):  4.360E-02 0.000E+00

     total cpu time spent up to now is      474.6 secs

     total energy              =   -2890.90441338 Ry
     estimated scf accuracy    <       0.16722179 Ry

     iteration # 12     ecut=    40.00 Ry     beta= 0.30
     Davidson diagonalization with overlap
     ethr =  4.62E-05,  avg # of iterations =  1.0

     negative rho (up, down):  2.335E-02 0.000E+00

     total cpu time spent up to now is      509.1 secs

     total energy              =   -2890.90155585 Ry
     estimated scf accuracy    <       0.09035170 Ry

     iteration # 13     ecut=    40.00 Ry     beta= 0.30
     Davidson diagonalization with overlap
     ethr =  3.14E-05,  avg # of iterations =  8.2

     negative rho (up, down):  1.704E-02 0.000E+00

     total cpu time spent up to now is      549.0 secs

     total energy              =   -2890.90256013 Ry
     estimated scf accuracy    <       0.00389416 Ry

     iteration # 14     ecut=    40.00 Ry     beta= 0.30
     Davidson diagonalization with overlap
     c_bands:  1 eigenvalues not converged
     c_bands:  1 eigenvalues not converged
     c_bands:  1 eigenvalues not converged
     ethr =  1.35E-06,  avg # of iterations = 19.8

     negative rho (up, down):  1.534E-02 0.000E+00

     total cpu time spent up to now is      600.9 secs

     total energy              =   -2890.90270633 Ry
     estimated scf accuracy    <       0.01698857 Ry

     iteration # 15     ecut=    40.00 Ry     beta= 0.30
     Davidson diagonalization with overlap
     ethr =  1.35E-06,  avg # of iterations =  3.0

     negative rho (up, down):  1.168E-02 0.000E+00

     total cpu time spent up to now is      636.9 secs

     total energy              =   -2890.90269030 Ry
     estimated scf accuracy    <       0.00518138 Ry

     iteration # 16     ecut=    40.00 Ry     beta= 0.30
     Davidson diagonalization with overlap
     ethr =  1.35E-06,  avg # of iterations =  7.0

     negative rho (up, down):  6.526E-03 0.000E+00

     total cpu time spent up to now is      674.8 secs

     total energy              =   -2890.90268184 Ry
     estimated scf accuracy    <       0.00254026 Ry

     iteration # 17     ecut=    40.00 Ry     beta= 0.30
     Davidson diagonalization with overlap
     c_bands:  1 eigenvalues not converged
     ethr =  8.82E-07,  avg # of iterations = 10.8

     negative rho (up, down):  1.813E-03 0.000E+00

     total cpu time spent up to now is      710.8 secs

     total energy              =   -2890.90237167 Ry
     estimated scf accuracy    <       0.00214785 Ry

     iteration # 18     ecut=    40.00 Ry     beta= 0.30
     Davidson diagonalization with overlap
     c_bands:  1 eigenvalues not converged
     ethr =  7.46E-07,  avg # of iterations = 10.5

     negative rho (up, down):  8.032E-04 0.000E+00

     total cpu time spent up to now is      746.8 secs

     total energy              =   -2890.90253491 Ry
     estimated scf accuracy    <       0.00098526 Ry

     iteration # 19     ecut=    40.00 Ry     beta= 0.30
     Davidson diagonalization with overlap
     ethr =  3.42E-07,  avg # of iterations =  4.2

     negative rho (up, down):  5.644E-04 0.000E+00

     total cpu time spent up to now is      779.5 secs

     total energy              =   -2890.90258406 Ry
     estimated scf accuracy    <       0.00049241 Ry

     iteration # 20     ecut=    40.00 Ry     beta= 0.30
     Davidson diagonalization with overlap
     ethr =  1.71E-07,  avg # of iterations = 10.5

     negative rho (up, down):  1.158E-03 0.000E+00

     total cpu time spent up to now is      816.3 secs

     total energy              =   -2890.90258368 Ry
     estimated scf accuracy    <       0.00038167 Ry

     iteration # 21     ecut=    40.00 Ry     beta= 0.30
     Davidson diagonalization with overlap
     ethr =  1.33E-07,  avg # of iterations =  9.0

     negative rho (up, down):  1.697E-03 0.000E+00

     total cpu time spent up to now is      851.6 secs

     total energy              =   -2890.90262299 Ry
     estimated scf accuracy    <       0.00027587 Ry

     iteration # 22     ecut=    40.00 Ry     beta= 0.30
     Davidson diagonalization with overlap
     ethr =  9.58E-08,  avg # of iterations =  7.8

     negative rho (up, down):  2.368E-03 0.000E+00

     total cpu time spent up to now is      886.2 secs

     total energy              =   -2890.90263263 Ry
     estimated scf accuracy    <       0.00018479 Ry

     iteration # 23     ecut=    40.00 Ry     beta= 0.30
     Davidson diagonalization with overlap
     ethr =  6.42E-08,  avg # of iterations =  2.2

     negative rho (up, down):  1.820E-03 0.000E+00

     total cpu time spent up to now is      917.5 secs

     total energy              =   -2890.90265213 Ry
     estimated scf accuracy    <       0.00009215 Ry

     iteration # 24     ecut=    40.00 Ry     beta= 0.30
     Davidson diagonalization with overlap
     ethr =  3.20E-08,  avg # of iterations =  5.5

     negative rho (up, down):  2.116E-03 0.000E+00

     total cpu time spent up to now is      950.6 secs

     total energy              =   -2890.90266997 Ry
     estimated scf accuracy    <       0.00004067 Ry

     iteration # 25     ecut=    40.00 Ry     beta= 0.30
     Davidson diagonalization with overlap
     ethr =  1.41E-08,  avg # of iterations =  2.0

     negative rho (up, down):  2.618E-03 0.000E+00

     total cpu time spent up to now is      982.0 secs

     total energy              =   -2890.90267734 Ry
     estimated scf accuracy    <       0.00005750 Ry

     iteration # 26     ecut=    40.00 Ry     beta= 0.30
     Davidson diagonalization with overlap
     c_bands:  1 eigenvalues not converged
     ethr =  1.41E-08,  avg # of iterations =  8.0

     negative rho (up, down):  2.527E-03 0.000E+00

     total cpu time spent up to now is     1016.5 secs

     total energy              =   -2890.90267942 Ry
     estimated scf accuracy    <       0.00002069 Ry

     iteration # 27     ecut=    40.00 Ry     beta= 0.30
     Davidson diagonalization with overlap
     ethr =  7.19E-09,  avg # of iterations =  1.8

     negative rho (up, down):  2.468E-03 0.000E+00

     total cpu time spent up to now is     1047.2 secs

     total energy              =   -2890.90267668 Ry
     estimated scf accuracy    <       0.00003011 Ry

     iteration # 28     ecut=    40.00 Ry     beta= 0.30
     Davidson diagonalization with overlap
     ethr =  7.19E-09,  avg # of iterations =  5.5

     negative rho (up, down):  2.641E-03 0.000E+00

     total cpu time spent up to now is     1080.2 secs

     total energy              =   -2890.90268171 Ry
     estimated scf accuracy    <       0.00001473 Ry

     iteration # 29     ecut=    40.00 Ry     beta= 0.30
     Davidson diagonalization with overlap
     ethr =  5.12E-09,  avg # of iterations =  2.0

     negative rho (up, down):  2.832E-03 0.000E+00

     total cpu time spent up to now is     1111.9 secs

     total energy              =   -2890.90268500 Ry
     estimated scf accuracy    <       0.00001025 Ry

     iteration # 30     ecut=    40.00 Ry     beta= 0.30
     Davidson diagonalization with overlap
     ethr =  3.56E-09,  avg # of iterations =  2.0

     negative rho (up, down):  3.017E-03 0.000E+00

     total cpu time spent up to now is     1143.1 secs

     total energy              =   -2890.90268627 Ry
     estimated scf accuracy    <       0.00000391 Ry

     iteration # 31     ecut=    40.00 Ry     beta= 0.30
     Davidson diagonalization with overlap
     ethr =  1.36E-09,  avg # of iterations =  3.5

     negative rho (up, down):  2.992E-03 0.000E+00

     total cpu time spent up to now is     1175.9 secs

     total energy              =   -2890.90268611 Ry
     estimated scf accuracy    <       0.00000311 Ry

     iteration # 32     ecut=    40.00 Ry     beta= 0.30
     Davidson diagonalization with overlap
     ethr =  1.08E-09,  avg # of iterations =  2.0

     negative rho (up, down):  3.003E-03 0.000E+00

     total cpu time spent up to now is     1210.4 secs

     End of self-consistent calculation

          k = 0.0000 0.0000 0.0000 ( 28285 PWs)   bands (ev):

   -21.7873 -21.1117 -21.0647 -21.0647 -21.0647 -20.4948 -20.4947 -20.4947
   -20.4064 -19.8678 -19.8678 -19.8678 -17.5071 -17.1320 -17.1320 -17.1320
    -9.7779  -9.7779  -9.7778  -9.7023  -9.3930  -9.3929  -9.3929  -9.1212
    -9.1212  -9.0387  -8.7921  -8.7921  -8.7921  -8.7122  -8.7121  -8.7121
    -8.6729  -8.6729  -8.6729  -8.5011  -8.5011  -8.4121  -8.4022  -8.4022
    -8.4022  -8.2714  -8.1209  -8.1209  -8.1089  -8.1089  -8.1089  -8.0290
    -8.0290  -8.0290  -7.9496  -7.9495  -7.8305  -7.8305  -7.8305  -7.7920
    -7.7920  -7.7713  -7.7712  -7.7712  -7.6787  -7.6787  -7.6787  -7.6418
    -7.6418  -7.6418  -7.4152  -7.4152  -7.4152  -7.1778  -7.1778  -7.0172
    -7.0172  -7.0172  -6.9924  -6.9924  -6.9924  -6.9100  -6.9100  -6.9100
    -6.5542  -6.5542  -6.4201  -6.4201  -6.4201  -6.4033  -6.4033  -6.4032
    -6.3524  -6.3524  -6.3524  -6.2386  -6.2385  -6.2385  -6.1665  -6.1470
    -6.1470  -6.0330  -6.0329  -6.0329  -5.9663  -5.9663  -5.9663  -5.7038
    -5.7038  -5.7038  -5.5528  -5.2166  -5.2166  -5.2166  -4.6879  -4.6879
    -4.6879  -4.3432  -4.2730  -4.2730  -4.2730  -3.8845  -3.8845  -3.8845
    -3.4795  -3.4795  -3.4795  -3.1489  -3.1158  -3.1158  -3.1158  -3.1034
    -3.1034  -2.6160  -2.6160  -2.6160  -2.4402  -2.4402  -1.8726  -1.8725
    -1.7959  -1.7959  -1.7959  -1.6659  -1.3097  -1.3097  -1.3097  -1.0196
    -1.0196  -0.8660  -0.8660  -0.8660  -0.3319  -0.3319  -0.3318  -0.1249
     1.4604   2.9632   3.5956   4.2091   4.2091   4.2092   4.3808   4.3808
     4.3808   4.9020   5.2732   5.2733   5.2733   5.8056   6.5507   6.5507
     6.5509   6.5988   6.6992   6.8341   6.8344

          k = 0.0000 0.2887 0.0000 ( 28254 PWs)   bands (ev):

   -21.6885 -21.1782 -21.0682 -21.0681 -21.0256 -20.5895 -20.4970 -20.4970
   -20.3312 -19.9507 -19.8694 -19.8694 -17.4548 -17.1897 -17.1323 -17.1323
    -9.7423  -9.6503  -9.6503  -9.6185  -9.3826  -9.3112  -9.3112  -9.2763
    -9.0543  -8.9417  -8.8552  -8.8552  -8.8198  -8.7598  -8.6922  -8.6922
    -8.6561  -8.5874  -8.5874  -8.5870  -8.4317  -8.3631  -8.3299  -8.3299
    -8.2767  -8.1816  -8.1640  -8.1640  -8.1349  -8.1228  -8.0917  -8.0716
    -8.0034  -8.0034  -7.9858  -7.8808  -7.8656  -7.8639  -7.8639  -7.8265
    -7.8242  -7.8027  -7.8027  -7.7891  -7.7235  -7.7175  -7.7045  -7.7044
    -7.6705  -7.6704  -7.5103  -7.4488  -7.4488  -7.3207  -7.2055  -7.2055
    -7.1774  -7.1737  -7.0665  -6.9958  -6.9958  -6.8050  -6.6688  -6.6688
    -6.6027  -6.6027  -6.5639  -6.5522  -6.4611  -6.4401  -6.3935  -6.3935
    -6.3258  -6.3258  -6.2613  -6.1847  -6.1537  -6.1527  -6.1527  -6.1494
    -6.1109  -6.0854  -6.0189  -6.0189  -5.8533  -5.8533  -5.8333  -5.5751
    -5.5751  -5.4487  -5.4298  -5.2473  -5.2473  -5.0052  -4.9757  -4.9757
    -4.4248  -4.3457  -4.3457  -4.3148  -4.1950  -4.0974  -4.0974  -3.6464
    -3.6049  -3.5968  -3.5968  -3.3573  -3.3183  -3.2610  -3.2610  -3.2023
    -2.9445  -2.9127  -2.6360  -2.4755  -2.4755  -2.4362  -2.4337  -2.3460
    -2.0413  -1.7856  -1.7856  -1.7251  -1.5369  -1.4677  -1.4677  -1.3859
    -1.3859  -1.3382  -1.2674  -1.0612   0.5302   0.8708   0.8708   1.9593
     1.9614   3.3044   3.3686   4.1134   4.1177   4.3309   4.3309   4.7651
     4.7651   5.1475   5.2189   5.4093   5.4093   6.0530   6.0530   6.0870
     6.1173   6.5432   6.5433   6.8367   6.8393

          k = 0.0000-0.5774 0.0000 ( 28240 PWs)   bands (ev):

   -21.4406 -21.4406 -21.0716 -21.0716 -20.8120 -20.8119 -20.4993 -20.4993
   -20.1448 -20.1448 -19.8710 -19.8710 -17.3249 -17.3249 -17.1327 -17.1327
    -9.6079  -9.6079  -9.4253  -9.4253  -9.3822  -9.3822  -9.3286  -9.3286
    -8.9069  -8.9069  -8.8978  -8.8977  -8.8718  -8.8717  -8.6511  -8.6511
    -8.6333  -8.6333  -8.5432  -8.5432  -8.2795  -8.2795  -8.2610  -8.2610
    -8.2563  -8.2563  -8.1550  -8.1550  -8.1479  -8.1479  -7.9998  -7.9998
    -7.9496  -7.9496  -7.9326  -7.9326  -7.9134  -7.9134  -7.8771  -7.8771
    -7.8413  -7.8413  -7.7706  -7.7706  -7.7333  -7.7333  -7.7051  -7.7051
    -7.7028  -7.7027  -7.6987  -7.6987  -7.4948  -7.4948  -7.2983  -7.2983
    -7.1419  -7.1419  -7.1134  -7.1134  -6.9875  -6.9875  -6.8166  -6.8165
    -6.5523  -6.5523  -6.5261  -6.5261  -6.4146  -6.4146  -6.3826  -6.3826
    -6.2882  -6.2882  -6.2313  -6.2312  -6.1478  -6.1478  -6.1405  -6.1404
    -6.0190  -6.0190  -5.9274  -5.9274  -5.6681  -5.6681  -5.6413  -5.6413
    -5.3462  -5.3462  -5.3400  -5.3400  -4.9930  -4.9930  -4.8063  -4.8063
    -4.6686  -4.6686  -4.4048  -4.4047  -4.3050  -4.3050  -3.8509  -3.8509
    -3.7163  -3.7163  -3.7116  -3.7115  -3.3212  -3.3212  -3.3161  -3.3161
    -3.1226  -3.1226  -2.9163  -2.9163  -2.4611  -2.4611  -2.2929  -2.2929
    -1.9321  -1.9321  -1.7815  -1.7814  -1.6738  -1.6738  -1.5953  -1.5953
    -1.5866  -1.5866  -1.1643  -1.1643   1.8471   1.8471   2.6528   2.6528
     2.9174   2.9174   3.2613   3.2613   4.1197   4.1197   4.5357   4.5358
     5.2462   5.2462   5.3418   5.3418   5.5985   5.5985   5.9455   5.9455
     6.2933   6.2933   6.9023   6.9024   6.9401

          k = 0.2500 0.4330 0.0000 ( 28256 PWs)   bands (ev):

   -21.5148 -21.2582 -21.2582 -20.9931 -20.8756 -20.6567 -20.6567 -20.4335
   -20.2003 -20.0092 -20.0092 -19.8129 -17.3635 -17.2301 -17.2300 -17.0915
    -9.5978  -9.5978  -9.5201  -9.4292  -9.3937  -9.3937  -9.3675  -9.1436
    -8.9639  -8.9433  -8.8943  -8.8943  -8.8494  -8.7529  -8.7529  -8.6584
    -8.6311  -8.6311  -8.5912  -8.4935  -8.3218  -8.2749  -8.2749  -8.2106
    -8.1897  -8.1897  -8.1777  -8.1438  -8.1360  -8.0811  -8.0811  -8.0662
    -8.0190  -7.9701  -7.9498  -7.9498  -7.9372  -7.8914  -7.8914  -7.8730
    -7.8135  -7.8135  -7.8085  -7.7793  -7.7449  -7.7448  -7.7444  -7.7269
    -7.7081  -7.6617  -7.5947  -7.5947  -7.4481  -7.4481  -7.4037  -7.1572
    -7.1537  -7.1419  -7.1255  -7.0831  -7.0831  -6.9528  -6.9528  -6.6920
    -6.5873  -6.5618  -6.5424  -6.5355  -6.4886  -6.4886  -6.4537  -6.4537
    -6.2526  -6.2168  -6.1940  -6.1914  -6.1914  -6.1546  -6.1272  -6.1272
    -6.0409  -6.0388  -5.9543  -5.9543  -5.8453  -5.7016  -5.7016  -5.6577
    -5.5099  -5.3011  -5.0952  -5.0952  -5.0706  -4.9960  -4.7366  -4.7366
    -4.5717  -4.4546  -4.4546  -4.2844  -4.1747  -4.1747  -4.1025  -4.0601
    -3.8605  -3.7987  -3.7987  -3.4894  -3.4264  -3.3202  -3.2374  -3.2374
    -3.0233  -2.9690  -2.9690  -2.8396  -2.6742  -2.6742  -2.4348  -2.3031
    -2.1649  -2.1649  -1.8575  -1.8147  -1.7083  -1.6772  -1.6772  -1.5640
    -1.3515  -1.3515  -1.1816   0.2222   0.4288   1.5017   2.6965   2.7109
     2.9354   2.9354   3.3230   3.3230   3.9777   4.2742   4.2742   4.9744
     5.1340   5.1340   5.5822   5.7870   5.9487   6.0983   6.0983   6.3613
     6.3614   6.4599   6.5224   7.0249   7.0249

     the Fermi energy is    -1.4194 ev

!    total energy              =   -2890.90268592 Ry
     estimated scf accuracy    <       0.00000057 Ry
     smearing contrib. (-TS)   =       0.00108781 Ry
     internal energy E=F+TS    =   -2890.90377373 Ry

     The total energy is F=E-TS. E is the sum of the following terms:
     one-electron contribution =  -38427.70794856 Ry
     hartree contribution      =   19443.03461137 Ry
     xc contribution           =    -876.53102401 Ry
     ewald contribution        =   16970.30058747 Ry

     convergence has been achieved in  32 iterations

     negative rho (up, down):  3.003E-03 0.000E+00

     Forces acting on atoms (cartesian axes, Ry/au):

     atom    1 type  1   force =     0.00000000    0.00000191   -0.07969783
     atom    2 type  1   force =     0.00000166   -0.00000096   -0.07969783
     atom    3 type  1   force =     0.00000000    0.00000000   -0.07969298
     atom    4 type  1   force =    -0.00000166   -0.00000096   -0.07969783
     atom    5 type  2   force =     0.00000000    0.00000109   -0.00361937
     atom    6 type  2   force =     0.00000094   -0.00000054   -0.00361937
     atom    7 type  2   force =     0.00000000    0.00000000   -0.00362840
     atom    8 type  2   force =    -0.00000094   -0.00000054   -0.00361937
     atom    9 type  1   force =    -0.00000014   -0.00000008    0.00466902
     atom   10 type  1   force =     0.00000000   -0.00000000    0.00466574
     atom   11 type  1   force =     0.00000014   -0.00000008    0.00466902
     atom   12 type  1   force =     0.00000000    0.00000016    0.00466902
     atom   13 type  2   force =     0.00000576    0.00000332   -0.01882021
     atom   14 type  2   force =     0.00000000    0.00000000   -0.01882788
     atom   15 type  2   force =    -0.00000576    0.00000332   -0.01882021
     atom   16 type  2   force =     0.00000000   -0.00000665   -0.01882021
     atom   17 type  1   force =     0.00000000    0.00000573    0.01612912
     atom   18 type  1   force =     0.00000496   -0.00000286    0.01612912
     atom   19 type  1   force =     0.00000000    0.00000000    0.01610928
     atom   20 type  1   force =    -0.00000496   -0.00000286    0.01612912
     atom   21 type  2   force =     0.00000000    0.00001427   -0.03126828
     atom   22 type  2   force =     0.00001236   -0.00000713   -0.03126828
     atom   23 type  2   force =     0.00000000    0.00000000   -0.03126400
     atom   24 type  2   force =    -0.00001236   -0.00000713   -0.03126828
     atom   25 type  1   force =     0.00000868    0.00000501    0.09474529
     atom   26 type  1   force =     0.00000000    0.00000000    0.09473259
     atom   27 type  1   force =    -0.00000868    0.00000501    0.09474529
     atom   28 type  1   force =     0.00000000   -0.00001002    0.09474529
     atom   29 type  2   force =    -0.00000239   -0.00000138    0.01787301
     atom   30 type  2   force =     0.00000000    0.00000000    0.01787343
     atom   31 type  2   force =     0.00000239   -0.00000138    0.01787301
     atom   32 type  2   force =     0.00000000    0.00000276    0.01787301

     Total force =     0.262860     Total SCF correction =     0.004216

     BFGS Geometry Optimization
     Energy error            =      6.9E-02 Ry
     Gradient error          =      9.5E-02 Ry/Bohr

     number of scf cycles    =   1
     number of bfgs steps    =   0

     energy             new  =   -2890.9026859164 Ry

     new trust radius        =       0.0947452880 bohr
     new conv_thr            =       0.0000010000 Ry


ATOMIC_POSITIONS (angstrom)
Zn              -0.0000020000        1.7729290130       -0.0369412765
Zn              -1.5354011227        4.4323184935       -0.0369412765
Zn               3.0707980000        1.7729280000       -0.0369387080
Zn               1.5353971227        4.4323184935       -0.0369412765
O               -0.0000020000        1.7729285749        1.8714127135
O               -1.5354015021        4.4323187125        1.8714127135
O                3.0707980000        1.7729280000        1.8714079317
O                1.5353975021        4.4323187125        1.8714127135
Zn               1.5354019254        0.8864629569        2.4665537365
Zn               0.0000020000        3.5458540000        2.4665520026
Zn               4.6062020746        0.8864629569        2.4665537365
Zn               3.0708020000        3.5458540862        2.4665537365
O                1.5354050474        0.8864647594        4.3222187726
O                0.0000020000        3.5458540000        4.3222147155
O                4.6061989526        0.8864647594        4.3222187726
O                3.0708020000        3.5458504811        4.3222187726
Zn              -0.0000020000        1.7729310296        4.9314681648
Zn              -1.5353993763        4.4323174852        4.9314681648
Zn               3.0707980000        1.7729280000        4.9314576612
Zn               1.5353953763        4.4323174852        4.9314681648
O               -0.0000020000        1.7729355503        6.7744815366
O               -1.5353954613        4.4323152249        6.7744815366
O                3.0707980000        1.7729280000        6.7744838025
O                1.5353914613        4.4323152249        6.7744815366
Zn               1.5354065915        0.8864656509        7.4319200470
Zn               0.0000020000        3.5458540000        7.4319133256
Zn               4.6061974085        0.8864656509        7.4319200470
Zn               3.0708020000        3.5458486982        7.4319200470
O                1.5354007369        0.8864622707        9.2593359921
O                0.0000020000        3.5458540000        9.2593362094
O                4.6062032631        0.8864622707        9.2593359921
O                3.0708020000        3.5458554586        9.2593359921



     Writing config-only to output data dir ./tmp/zno_slab_pure.save/ :
     XML data file
     NEW-OLD atomic charge density approx. for the potential

     Check: negative core charge=   -0.000001

     negative rho (up, down):  2.863E-03 0.000E+00

     total cpu time spent up to now is     1223.3 secs

     per-process dynamical memory:   877.7 Mb

     Self-consistent Calculation

     iteration #  1     ecut=    40.00 Ry     beta= 0.30
     Davidson diagonalization with overlap
     ethr =  1.00E-06,  avg # of iterations = 12.2

     negative rho (up, down):  2.687E-03 0.000E+00

     total cpu time spent up to now is     1413.0 secs

     total energy              =   -2890.96116293 Ry
     estimated scf accuracy    <       0.02248156 Ry

     iteration #  2     ecut=    40.00 Ry     beta= 0.30
     Davidson diagonalization with overlap
     ethr =  7.81E-06,  avg # of iterations =  1.0

     negative rho (up, down):  2.410E-03 0.000E+00

     total cpu time spent up to now is     1468.4 secs

     total energy              =   -2890.96049193 Ry
     estimated scf accuracy    <       0.01272977 Ry

     iteration #  3     ecut=    40.00 Ry     beta= 0.30
     Davidson diagonalization with overlap
     ethr =  4.42E-06,  avg # of iterations =  1.0

     negative rho (up, down):  2.262E-03 0.000E+00

     total cpu time spent up to now is     1528.7 secs

     total energy              =   -2890.96050823 Ry
     estimated scf accuracy    <       0.00371011 Ry

     iteration #  4     ecut=    40.00 Ry     beta= 0.30
     Davidson diagonalization with overlap
     ethr =  1.29E-06,  avg # of iterations =  1.5

     negative rho (up, down):  1.911E-03 0.000E+00

     total cpu time spent up to now is     1595.7 secs

     total energy              =   -2890.95997342 Ry
     estimated scf accuracy    <       0.01058324 Ry

     iteration #  5     ecut=    40.00 Ry     beta= 0.30
     Davidson diagonalization with overlap
     ethr =  1.29E-06,  avg # of iterations =  5.5

     negative rho (up, down):  1.758E-03 0.000E+00

     total cpu time spent up to now is     1670.9 secs

     total energy              =   -2890.95993881 Ry
     estimated scf accuracy    <       0.00612755 Ry

     iteration #  6     ecut=    40.00 Ry     beta= 0.30
     Davidson diagonalization with overlap
     ethr =  1.29E-06,  avg # of iterations =  2.0

     negative rho (up, down):  1.357E-03 0.000E+00

     total cpu time spent up to now is     1740.0 secs

     total energy              =   -2890.95988965 Ry
     estimated scf accuracy    <       0.00202032 Ry

     iteration #  7     ecut=    40.00 Ry     beta= 0.30
     Davidson diagonalization with overlap
     ethr =  7.02E-07,  avg # of iterations =  8.2

     negative rho (up, down):  1.148E-03 0.000E+00

     total cpu time spent up to now is     1812.5 secs

     total energy              =   -2890.95983152 Ry
     estimated scf accuracy    <       0.00046378 Ry

     iteration #  8     ecut=    40.00 Ry     beta= 0.30
     Davidson diagonalization with overlap
     ethr =  1.61E-07,  avg # of iterations =  3.8

     negative rho (up, down):  1.131E-03 0.000E+00

     total cpu time spent up to now is     1882.8 secs

     total energy              =   -2890.95985211 Ry
     estimated scf accuracy    <       0.00015466 Ry

     iteration #  9     ecut=    40.00 Ry     beta= 0.30
     Davidson diagonalization with overlap
     ethr =  5.37E-08,  avg # of iterations =  3.0

     negative rho (up, down):  1.189E-03 0.000E+00

     total cpu time spent up to now is     1953.4 secs

     total energy              =   -2890.95986789 Ry
     estimated scf accuracy    <       0.00003902 Ry

     iteration # 10     ecut=    40.00 Ry     beta= 0.30
     Davidson diagonalization with overlap
     ethr =  1.35E-08,  avg # of iterations =  6.0

     negative rho (up, down):  1.304E-03 0.000E+00

     total cpu time spent up to now is     2030.6 secs

     total energy              =   -2890.95987410 Ry
     estimated scf accuracy    <       0.00002613 Ry

     iteration # 11     ecut=    40.00 Ry     beta= 0.30
     Davidson diagonalization with overlap
     ethr =  9.07E-09,  avg # of iterations =  2.0

     negative rho (up, down):  1.484E-03 0.000E+00

     total cpu time spent up to now is     2111.0 secs

     total energy              =   -2890.95987705 Ry
     estimated scf accuracy    <       0.00002624 Ry

     iteration # 12     ecut=    40.00 Ry     beta= 0.30
     Davidson diagonalization with overlap
     ethr =  9.07E-09,  avg # of iterations =  2.0

     negative rho (up, down):  1.566E-03 0.000E+00

     total cpu time spent up to now is     2248.0 secs

     total energy              =   -2890.95987954 Ry
     estimated scf accuracy    <       0.00001295 Ry

     iteration # 13     ecut=    40.00 Ry     beta= 0.30
     Davidson diagonalization with overlap
     ethr =  4.50E-09,  avg # of iterations =  1.8

     negative rho (up, down):  2.103E-03 0.000E+00

     total cpu time spent up to now is     2442.6 secs

     total energy              =   -2890.95988566 Ry
     estimated scf accuracy    <       0.00001456 Ry

     iteration # 14     ecut=    40.00 Ry     beta= 0.30
     Davidson diagonalization with overlap
     ethr =  4.50E-09,  avg # of iterations =  2.0

     negative rho (up, down):  2.387E-03 0.000E+00

     total cpu time spent up to now is     2654.2 secs

     total energy              =   -2890.95988773 Ry
     estimated scf accuracy    <       0.00000464 Ry

     iteration # 15     ecut=    40.00 Ry     beta= 0.30
     Davidson diagonalization with overlap
     ethr =  1.61E-09,  avg # of iterations =  2.0

     negative rho (up, down):  2.498E-03 0.000E+00

     total cpu time spent up to now is     2848.9 secs

     total energy              =   -2890.95988833 Ry
     estimated scf accuracy    <       0.00000438 Ry

     iteration # 16     ecut=    40.00 Ry     beta= 0.30
     Davidson diagonalization with overlap
     ethr =  1.52E-09,  avg # of iterations =  1.2

     negative rho (up, down):  2.562E-03 0.000E+00

     total cpu time spent up to now is     3061.7 secs

     total energy              =   -2890.95988890 Ry
     estimated scf accuracy    <       0.00000144 Ry

     iteration # 17     ecut=    40.00 Ry     beta= 0.30
     Davidson diagonalization with overlap
     ethr =  5.01E-10,  avg # of iterations =  2.0

     negative rho (up, down):  2.689E-03 0.000E+00

     total cpu time spent up to now is     3315.8 secs

     total energy              =   -2890.95988919 Ry
     estimated scf accuracy    <       0.00000127 Ry

     iteration # 18     ecut=    40.00 Ry     beta= 0.30
     Davidson diagonalization with overlap
     ethr =  4.39E-10,  avg # of iterations =  1.5

     negative rho (up, down):  2.949E-03 0.000E+00

     total cpu time spent up to now is     3523.8 secs

     End of self-consistent calculation

          k = 0.0000 0.0000 0.0000 ( 28285 PWs)   bands (ev):

   -21.5040 -20.8924 -20.7632 -20.7632 -20.7632 -20.2776 -20.2765 -20.2765
   -20.2765 -19.7637 -19.7637 -19.7637 -17.6473 -17.2751 -17.2751 -17.2750
    -9.5054  -9.5054  -9.5054  -9.4317  -9.1639  -9.1639  -9.1639  -8.8581
    -8.8581  -8.8532  -8.6248  -8.6248  -8.6248  -8.4913  -8.4913  -8.4912
    -8.4783  -8.4782  -8.4782  -8.3692  -8.3692  -8.3692  -8.3682  -8.2776
    -8.2727  -8.2727  -8.0971  -8.0971  -7.9465  -7.9465  -7.9465  -7.8695
    -7.8695  -7.8694  -7.8161  -7.8161  -7.7833  -7.7833  -7.7833  -7.7515
    -7.7515  -7.7499  -7.7499  -7.7499  -7.5933  -7.5933  -7.5933  -7.5882
    -7.5882  -7.5882  -7.3315  -7.3315  -7.3314  -6.9427  -6.9427  -6.8640
    -6.8640  -6.8640  -6.7861  -6.7861  -6.7861  -6.7063  -6.7063  -6.7063
    -6.4029  -6.4029  -6.3850  -6.3849  -6.3849  -6.3097  -6.3097  -6.3097
    -6.2610  -6.2610  -6.2610  -6.2201  -6.2201  -6.1302  -6.1302  -6.1302
    -6.1281  -6.0891  -6.0891  -6.0891  -5.9346  -5.9346  -5.9345  -5.5849
    -5.5683  -5.5683  -5.5683  -5.0931  -5.0931  -5.0931  -4.4933  -4.4933
    -4.4933  -4.2864  -4.1423  -4.1423  -4.1423  -3.7516  -3.7516  -3.7516
    -3.4141  -3.4141  -3.4141  -3.0456  -2.9800  -2.9800  -2.9800  -2.8885
    -2.8885  -2.6192  -2.6192  -2.6192  -2.3551  -2.3551  -1.8863  -1.8863
    -1.8863  -1.8773  -1.8773  -1.6584  -1.3329  -1.3328  -1.3328  -1.0596
    -1.0596  -0.8636  -0.8636  -0.8636  -0.3656  -0.3656  -0.3655   0.0175
     1.5438   2.9805   3.6553   4.3757   4.3758   4.3758   4.5888   4.5888
     4.5888   4.8664   5.3647   5.3647   5.3647   5.7604   6.5655   6.6571
     6.6571   6.6572   6.6784   6.8138   6.8138

          k = 0.0000 0.2887 0.0000 ( 28254 PWs)   bands (ev):

   -21.4033 -20.8804 -20.8063 -20.7669 -20.7669 -20.3708 -20.2787 -20.2787
   -20.2055 -19.8423 -19.7650 -19.7650 -17.5953 -17.3323 -17.2754 -17.2754
    -9.4723  -9.3822  -9.3822  -9.3487  -9.1492  -9.0787  -9.0787  -9.0245
    -8.7931  -8.7431  -8.6462  -8.6462  -8.6380  -8.5191  -8.4976  -8.4976
    -8.4733  -8.4035  -8.4035  -8.3841  -8.3293  -8.2869  -8.2869  -8.2260
    -8.2068  -8.1591  -8.0925  -8.0479  -8.0296  -8.0296  -7.9885  -7.9106
    -7.8548  -7.8425  -7.8425  -7.8341  -7.8341  -7.8146  -7.8026  -7.7838
    -7.7584  -7.7499  -7.7499  -7.7425  -7.6615  -7.6438  -7.6376  -7.6376
    -7.5931  -7.5931  -7.4220  -7.3566  -7.3566  -7.1766  -7.0461  -7.0461
    -6.9468  -6.9389  -6.8326  -6.7794  -6.7794  -6.6500  -6.5398  -6.5398
    -6.4373  -6.4372  -6.4271  -6.4249  -6.4021  -6.3521  -6.3521  -6.3043
    -6.2463  -6.2463  -6.2461  -6.2202  -6.1818  -6.1529  -6.1529  -6.1472
    -6.0975  -6.0900  -6.0098  -6.0098  -5.7706  -5.7706  -5.7469  -5.4762
    -5.4762  -5.4556  -5.3376  -5.1238  -5.1238  -4.8900  -4.7922  -4.7922
    -4.2439  -4.2258  -4.2170  -4.2170  -4.1006  -3.9642  -3.9642  -3.5234
    -3.4774  -3.4774  -3.4288  -3.2551  -3.1594  -3.1594  -3.1089  -3.1064
    -2.8396  -2.7985  -2.5469  -2.4809  -2.4809  -2.4508  -2.4097  -2.3553
    -2.0236  -1.8733  -1.8733  -1.8049  -1.5607  -1.4911  -1.4911  -1.4029
    -1.4029  -1.3790  -1.2924  -1.0980   0.6809   0.8613   0.8613   1.9737
     2.0406   3.3817   3.4642   4.1756   4.2374   4.4979   4.4979   4.9323
     4.9323   5.1950   5.1977   5.5175   5.5175   6.0526   6.0927   6.0927
     6.1301   6.5373   6.5373   6.8356   6.9066

          k = 0.0000-0.5774 0.0000 ( 28240 PWs)   bands (ev):

   -21.1500 -21.1500 -20.7706 -20.7706 -20.5928 -20.5928 -20.2809 -20.2809
   -20.0271 -20.0271 -19.7663 -19.7662 -17.4665 -17.4664 -17.2757 -17.2757
    -9.3415  -9.3415  -9.1664  -9.1664  -9.1335  -9.1335  -9.0802  -9.0802
    -8.6928  -8.6928  -8.6746  -8.6746  -8.6440  -8.6440  -8.4537  -8.4537
    -8.4473  -8.4473  -8.3483  -8.3483  -8.2456  -8.2456  -8.1601  -8.1601
    -8.0849  -8.0849  -8.0490  -8.0490  -8.0440  -8.0439  -7.9584  -7.9584
    -7.9269  -7.9269  -7.8737  -7.8737  -7.8244  -7.8243  -7.8108  -7.8108
    -7.7418  -7.7418  -7.7185  -7.7185  -7.6724  -7.6724  -7.6160  -7.6160
    -7.6116  -7.6116  -7.5984  -7.5983  -7.3931  -7.3931  -7.1310  -7.1310
    -6.9070  -6.9069  -6.9018  -6.9018  -6.7704  -6.7704  -6.6720  -6.6720
    -6.4664  -6.4664  -6.3902  -6.3902  -6.3743  -6.3743  -6.3112  -6.3111
    -6.2544  -6.2544  -6.2080  -6.2080  -6.1724  -6.1724  -6.1344  -6.1344
    -6.0343  -6.0343  -5.9141  -5.9141  -5.5906  -5.5906  -5.4713  -5.4713
    -5.2362  -5.2361  -5.1878  -5.1878  -4.9118  -4.9117  -4.6782  -4.6782
    -4.5590  -4.5590  -4.3279  -4.3279  -4.1407  -4.1407  -3.6475  -3.6475
    -3.6452  -3.6452  -3.5448  -3.5448  -3.2744  -3.2744  -3.2476  -3.2476
    -3.0191  -3.0191  -2.8106  -2.8106  -2.3947  -2.3947  -2.3027  -2.3026
    -1.9637  -1.9636  -1.8652  -1.8652  -1.6978  -1.6978  -1.6503  -1.6503
    -1.6068  -1.6068  -1.1946  -1.1946   1.9933   1.9933   2.6506   2.6506
     3.0008   3.0008   3.2870   3.2870   4.1774   4.1774   4.7314   4.7314
     5.2534   5.2534   5.4782   5.4785   5.6214   5.6214   5.9913   5.9919
     6.2675   6.2675   6.7846   6.9213   6.9214

          k = 0.2500 0.4330 0.0000 ( 28256 PWs)   bands (ev):

   -21.2260 -20.9629 -20.9629 -20.6894 -20.6563 -20.4378 -20.4378 -20.2155
   -20.0801 -19.8978 -19.8977 -19.7111 -17.5048 -17.3723 -17.3723 -17.2349
    -9.3326  -9.3325  -9.2564  -9.1705  -9.1468  -9.1468  -9.1115  -8.9035
    -8.7306  -8.7246  -8.6837  -8.6837  -8.6360  -8.5440  -8.5440  -8.4484
    -8.4245  -8.4245  -8.4066  -8.3019  -8.2288  -8.2288  -8.1553  -8.1308
    -8.1225  -8.0875  -8.0721  -8.0555  -8.0555  -8.0046  -7.9530  -7.9530
    -7.9445  -7.9253  -7.8985  -7.8985  -7.8298  -7.8244  -7.8244  -7.8187
    -7.7517  -7.7452  -7.7452  -7.7123  -7.6781  -7.6781  -7.6510  -7.6477
    -7.6440  -7.5407  -7.5073  -7.5072  -7.3188  -7.3187  -7.2527  -6.9804
    -6.9477  -6.9287  -6.9165  -6.8535  -6.8535  -6.7737  -6.7737  -6.5107
    -6.4921  -6.4511  -6.4403  -6.4363  -6.4362  -6.3932  -6.3351  -6.3351
    -6.2903  -6.2542  -6.2202  -6.1922  -6.1922  -6.1705  -6.1705  -6.1478
    -6.0451  -5.9615  -5.9537  -5.9536  -5.7065  -5.6303  -5.5120  -5.5120
    -5.4176  -5.2481  -4.9900  -4.9900  -4.9585  -4.8190  -4.6474  -4.6474
    -4.4294  -4.2853  -4.2853  -4.1020  -4.0818  -4.0818  -3.9767  -3.8774
    -3.7465  -3.6942  -3.6942  -3.3852  -3.3335  -3.2938  -3.1041  -3.1041
    -2.9310  -2.8906  -2.8906  -2.7346  -2.6526  -2.6526  -2.3789  -2.3157
    -2.1806  -2.1806  -1.9025  -1.8737  -1.7495  -1.7495  -1.7420  -1.6105
    -1.3793  -1.3793  -1.2146   0.2285   0.3907   1.6473   2.7180   2.7756
     3.0534   3.0534   3.4186   3.4186   4.0155   4.3580   4.3581   4.9981
     5.1627   5.1627   5.7892   5.8109   6.0894   6.0894   6.1561   6.3684
     6.3684   6.5180   6.6119   6.9955   6.9956

     the Fermi energy is    -1.4412 ev

!    total energy              =   -2890.95988882 Ry
     estimated scf accuracy    <       0.00000049 Ry
     smearing contrib. (-TS)   =      -0.00051606 Ry
     internal energy E=F+TS    =   -2890.95937275 Ry

     The total energy is F=E-TS. E is the sum of the following terms:
     one-electron contribution =  -38179.52383999 Ry
     hartree contribution      =   19319.98931462 Ry
     xc contribution           =    -876.40669376 Ry
     ewald contribution        =   16844.98184638 Ry

     convergence has been achieved in  18 iterations

     negative rho (up, down):  2.949E-03 0.000E+00

     Forces acting on atoms (cartesian axes, Ry/au):

     atom    1 type  1   force =     0.00000000    0.00000064   -0.05371674
     atom    2 type  1   force =     0.00000055   -0.00000032   -0.05371674
     atom    3 type  1   force =     0.00000000    0.00000000   -0.05372545
     atom    4 type  1   force =    -0.00000055   -0.00000032   -0.05371674
     atom    5 type  2   force =     0.00000000   -0.00000204   -0.02898135
     atom    6 type  2   force =    -0.00000176    0.00000102   -0.02898135
     atom    7 type  2   force =     0.00000000   -0.00000000   -0.02897732
     atom    8 type  2   force =     0.00000176    0.00000102   -0.02898135
     atom    9 type  1   force =    -0.00000545   -0.00000315   -0.00227408
     atom   10 type  1   force =     0.00000000   -0.00000000   -0.00226888
     atom   11 type  1   force =     0.00000545   -0.00000315   -0.00227408
     atom   12 type  1   force =     0.00000000    0.00000630   -0.00227408
     atom   13 type  2   force =    -0.00000343   -0.00000198   -0.00962309
     atom   14 type  2   force =     0.00000000    0.00000000   -0.00962250
     atom   15 type  2   force =     0.00000343   -0.00000198   -0.00962309
     atom   16 type  2   force =     0.00000000    0.00000396   -0.00962309
     atom   17 type  1   force =     0.00000000   -0.00000293    0.00124694
     atom   18 type  1   force =    -0.00000253    0.00000146    0.00124694
     atom   19 type  1   force =     0.00000000   -0.00000000    0.00126166
     atom   20 type  1   force =     0.00000253    0.00000146    0.00124694
     atom   21 type  2   force =     0.00000000   -0.00000234   -0.00469947
     atom   22 type  2   force =    -0.00000202    0.00000117   -0.00469947
     atom   23 type  2   force =     0.00000000    0.00000000   -0.00470792
     atom   24 type  2   force =     0.00000202    0.00000117   -0.00469947
     atom   25 type  1   force =    -0.00000082   -0.00000048    0.06511090
     atom   26 type  1   force =     0.00000000    0.00000000    0.06524138
     atom   27 type  1   force =     0.00000082   -0.00000048    0.06511090
     atom   28 type  1   force =     0.00000000    0.00000095    0.06511090
     atom   29 type  2   force =    -0.00000118   -0.00000068    0.03290799
     atom   30 type  2   force =     0.00000000    0.00000000    0.03288572
     atom   31 type  2   force =     0.00000118   -0.00000068    0.03290799
     atom   32 type  2   force =     0.00000000    0.00000136    0.03290799

     Total force =     0.191554     Total SCF correction =     0.004191
     Energy error            =      5.7E-02 Ry
     Gradient error          =      6.5E-02 Ry/Bohr

     number of scf cycles    =   2
     number of bfgs steps    =   1

     energy             old  =   -2890.9026859164 Ry
     energy             new  =   -2890.9598888184 Ry

     CASE: energy            _new < energy            _old

     new trust radius        =       0.1042198168 bohr
     new conv_thr            =       0.0000006524 Ry


ATOMIC_POSITIONS (angstrom)
Zn              -0.0000020000        1.7729297110       -0.0826253350
Zn              -1.5354005182        4.4323181445       -0.0826253350
Zn               3.0707980000        1.7729280000       -0.0826272966
Zn               1.5353965182        4.4323181445       -0.0826253350
O               -0.0000020000        1.7729275084        1.8531487196
O               -1.5354024257        4.4323192458        1.8531487196
O                3.0707980000        1.7729280000        1.8531449296
O                1.5353984257        4.4323192458        1.8531487196
Zn               1.5353985771        0.8864610238        2.4659235176
Zn               0.0000020000        3.5458540000        2.4659244282
Zn               4.6062054229        0.8864610238        2.4659235176
Zn               3.0708020000        3.5458579524        2.4659235176
O                1.5354038908        0.8864640917        4.3132983026
O                0.0000020000        3.5458540000        4.3132933609
O                4.6062001092        0.8864640917        4.3132983026
O                3.0708020000        3.5458518166        4.3132983026
Zn              -0.0000020000        1.7729301733        4.9348433347
Zn              -1.5354001179        4.4323179134        4.9348433347
Zn               3.0707980000        1.7729280000        4.9348385949
Zn               1.5353961179        4.4323179134        4.9348433347
O               -0.0000020000        1.7729364378        6.7665463637
O               -1.5353946927        4.4323147811        6.7665463637
O                3.0707980000        1.7729280000        6.7665441698
O                1.5353906927        4.4323147811        6.7665463637
Zn               1.5354074949        0.8864661725        7.4869932703
Zn               0.0000020000        3.5458540000        7.4870640775
Zn               4.6061965051        0.8864661725        7.4869932703
Zn               3.0708020000        3.5458476551        7.4869932703
O                1.5353996304        0.8864616319        9.2823056287
O                0.0000020000        3.5458540000        9.2822923294
O                4.6062043696        0.8864616319        9.2823056287
O                3.0708020000        3.5458567362        9.2823056287



     Writing config-only to output data dir ./tmp/zno_slab_pure.save/ :
     XML data file
     NEW-OLD atomic charge density approx. for the potential

     Check: negative core charge=   -0.000001

     negative rho (up, down):  2.744E-03 0.000E+00

     total cpu time spent up to now is     3575.9 secs

     per-process dynamical memory:   877.7 Mb

     Self-consistent Calculation

     iteration #  1     ecut=    40.00 Ry     beta= 0.30
     Davidson diagonalization with overlap
     ethr =  1.00E-06,  avg # of iterations = 14.2

     negative rho (up, down):  2.633E-03 0.000E+00

     total cpu time spent up to now is     3919.0 secs

     total energy              =   -2891.00827483 Ry
     estimated scf accuracy    <       0.02131842 Ry

     iteration #  2     ecut=    40.00 Ry     beta= 0.30
     Davidson diagonalization with overlap
     ethr =  7.40E-06,  avg # of iterations =  1.0

     negative rho (up, down):  2.516E-03 0.000E+00

     total cpu time spent up to now is     3995.0 secs

     total energy              =   -2891.00797314 Ry
     estimated scf accuracy    <       0.00460115 Ry

     iteration #  3     ecut=    40.00 Ry     beta= 0.30
     Davidson diagonalization with overlap
     ethr =  1.60E-06,  avg # of iterations =  1.0

     negative rho (up, down):  2.430E-03 0.000E+00

     total cpu time spent up to now is     4074.3 secs

     total energy              =   -2891.00785919 Ry
     estimated scf accuracy    <       0.01023798 Ry

     iteration #  4     ecut=    40.00 Ry     beta= 0.30
     Davidson diagonalization with overlap
     ethr =  1.60E-06,  avg # of iterations =  1.0

     negative rho (up, down):  2.360E-03 0.000E+00

     total cpu time spent up to now is     4147.3 secs

     total energy              =   -2891.00786893 Ry
     estimated scf accuracy    <       0.00421653 Ry

     iteration #  5     ecut=    40.00 Ry     beta= 0.30
     Davidson diagonalization with overlap
     ethr =  1.46E-06,  avg # of iterations =  1.0

     negative rho (up, down):  2.248E-03 0.000E+00

     total cpu time spent up to now is     4203.4 secs

     total energy              =   -2891.00759647 Ry
     estimated scf accuracy    <       0.00232779 Ry

     iteration #  6     ecut=    40.00 Ry     beta= 0.30
     Davidson diagonalization with overlap
     ethr =  8.08E-07,  avg # of iterations =  3.8

     negative rho (up, down):  1.981E-03 0.000E+00

     total cpu time spent up to now is     4267.1 secs

     total energy              =   -2891.00760559 Ry
     estimated scf accuracy    <       0.00091347 Ry

     iteration #  7     ecut=    40.00 Ry     beta= 0.30
     Davidson diagonalization with overlap
     ethr =  3.17E-07,  avg # of iterations =  3.2

     negative rho (up, down):  1.619E-03 0.000E+00

     total cpu time spent up to now is     4319.8 secs

     total energy              =   -2891.00753837 Ry
     estimated scf accuracy    <       0.00112576 Ry

     iteration #  8     ecut=    40.00 Ry     beta= 0.30
     Davidson diagonalization with overlap
     ethr =  3.17E-07,  avg # of iterations =  2.0

     negative rho (up, down):  1.613E-03 0.000E+00

     total cpu time spent up to now is     4360.4 secs

     total energy              =   -2891.00757049 Ry
     estimated scf accuracy    <       0.00006173 Ry

     iteration #  9     ecut=    40.00 Ry     beta= 0.30
     Davidson diagonalization with overlap
     ethr =  2.14E-08,  avg # of iterations =  8.2

     negative rho (up, down):  1.644E-03 0.000E+00

     total cpu time spent up to now is     4409.8 secs

     total energy              =   -2891.00758054 Ry
     estimated scf accuracy    <       0.00002767 Ry

     iteration # 10     ecut=    40.00 Ry     beta= 0.30
     Davidson diagonalization with overlap
     ethr =  9.61E-09,  avg # of iterations =  2.0

     negative rho (up, down):  1.722E-03 0.000E+00

     total cpu time spent up to now is     4450.3 secs

     total energy              =   -2891.00758030 Ry
     estimated scf accuracy    <       0.00003457 Ry

     iteration # 11     ecut=    40.00 Ry     beta= 0.30
     Davidson diagonalization with overlap
     ethr =  9.61E-09,  avg # of iterations =  2.0

     negative rho (up, down):  1.786E-03 0.000E+00

     total cpu time spent up to now is     4490.9 secs

     total energy              =   -2891.00758197 Ry
     estimated scf accuracy    <       0.00001268 Ry

     iteration # 12     ecut=    40.00 Ry     beta= 0.30
     Davidson diagonalization with overlap
     ethr =  4.40E-09,  avg # of iterations =  2.0

     negative rho (up, down):  1.897E-03 0.000E+00

     total cpu time spent up to now is     4532.0 secs

     total energy              =   -2891.00758340 Ry
     estimated scf accuracy    <       0.00000757 Ry

     iteration # 13     ecut=    40.00 Ry     beta= 0.30
     Davidson diagonalization with overlap
     ethr =  2.63E-09,  avg # of iterations =  2.0

     negative rho (up, down):  2.168E-03 0.000E+00

     total cpu time spent up to now is     4572.3 secs

     total energy              =   -2891.00758504 Ry
     estimated scf accuracy    <       0.00000468 Ry

     iteration # 14     ecut=    40.00 Ry     beta= 0.30
     Davidson diagonalization with overlap
     ethr =  1.62E-09,  avg # of iterations =  2.0

     negative rho (up, down):  2.462E-03 0.000E+00

     total cpu time spent up to now is     4613.7 secs

     total energy              =   -2891.00758547 Ry
     estimated scf accuracy    <       0.00000328 Ry

     iteration # 15     ecut=    40.00 Ry     beta= 0.30
     Davidson diagonalization with overlap
     ethr =  1.14E-09,  avg # of iterations =  2.0

     negative rho (up, down):  2.615E-03 0.000E+00

     total cpu time spent up to now is     4654.5 secs

     total energy              =   -2891.00758565 Ry
     estimated scf accuracy    <       0.00000123 Ry

     iteration # 16     ecut=    40.00 Ry     beta= 0.30
     Davidson diagonalization with overlap
     ethr =  4.27E-10,  avg # of iterations =  2.0

     negative rho (up, down):  2.720E-03 0.000E+00

     total cpu time spent up to now is     4695.2 secs

     total energy              =   -2891.00758564 Ry
     estimated scf accuracy    <       0.00000094 Ry

     iteration # 17     ecut=    40.00 Ry     beta= 0.30
     Davidson diagonalization with overlap
     ethr =  3.26E-10,  avg # of iterations =  1.0

     negative rho (up, down):  2.867E-03 0.000E+00

     total cpu time spent up to now is     4730.8 secs

     End of self-consistent calculation

          k = 0.0000 0.0000 0.0000 ( 28285 PWs)   bands (ev):

   -21.2808 -20.7302 -20.5208 -20.5208 -20.5208 -20.1381 -20.1381 -20.1380
   -20.1345 -19.6224 -19.6223 -19.6223 -17.7566 -17.3875 -17.3873 -17.3873
    -9.2888  -9.2888  -9.2888  -9.2377  -9.0015  -9.0015  -9.0015  -8.7257
    -8.6393  -8.6392  -8.4798  -8.4798  -8.4797  -8.3678  -8.3678  -8.3678
    -8.3388  -8.3388  -8.3388  -8.3324  -8.3109  -8.3109  -8.3109  -8.2507
    -8.1243  -8.1243  -8.0753  -8.0752  -7.8180  -7.8180  -7.8180  -7.7738
    -7.7738  -7.7738  -7.7445  -7.7445  -7.7445  -7.7307  -7.7307  -7.7307
    -7.7186  -7.7186  -7.6727  -7.6727  -7.5383  -7.5383  -7.5383  -7.5064
    -7.5064  -7.5064  -7.2444  -7.2444  -7.2444  -6.7792  -6.7792  -6.7681
    -6.7681  -6.7681  -6.6242  -6.6242  -6.6242  -6.5838  -6.5838  -6.5838
    -6.4020  -6.4020  -6.4019  -6.3499  -6.3499  -6.3389  -6.3389  -6.3388
    -6.2367  -6.2366  -6.1608  -6.1608  -6.1608  -6.1421  -6.1283  -6.1283
    -6.1282  -6.0333  -6.0333  -6.0333  -5.8696  -5.8696  -5.8696  -5.6070
    -5.4532  -5.4532  -5.4532  -5.0018  -5.0018  -5.0018  -4.3520  -4.3520
    -4.3520  -4.2497  -4.0630  -4.0630  -4.0630  -3.6465  -3.6465  -3.6465
    -3.3691  -3.3691  -3.3691  -2.9946  -2.8694  -2.8694  -2.8694  -2.7566
    -2.7565  -2.6051  -2.6050  -2.6050  -2.3342  -2.3342  -1.9519  -1.9519
    -1.9519  -1.8417  -1.8417  -1.6607  -1.3401  -1.3401  -1.3401  -1.0823
    -1.0823  -0.8554  -0.8554  -0.8554  -0.3811  -0.3811  -0.3811   0.1039
     1.5980   2.9754   3.6977   4.4700   4.4700   4.4700   4.6954   4.6954
     4.6955   4.8472   5.4180   5.4180   5.4181   5.7383   6.5467   6.6520
     6.6668   6.6670   6.6687   6.8165   6.8166

          k = 0.0000 0.2887 0.0000 ( 28254 PWs)   bands (ev):

   -21.1785 -20.6462 -20.6428 -20.5248 -20.5248 -20.2268 -20.1399 -20.1399
   -20.0628 -19.7010 -19.6236 -19.6236 -17.7050 -17.4441 -17.3877 -17.3876
    -9.2584  -9.1720  -9.1719  -9.1549  -8.9810  -8.9113  -8.9112  -8.8280
    -8.5921  -8.5788  -8.4984  -8.4984  -8.4923  -8.3510  -8.3510  -8.3488
    -8.3420  -8.2962  -8.2796  -8.2796  -8.2759  -8.2417  -8.2417  -8.1805
    -8.0996  -8.0613  -8.0588  -8.0255  -7.9223  -7.9223  -7.8738  -7.8151
    -7.8151  -7.8024  -7.7823  -7.7695  -7.7527  -7.7402  -7.7402  -7.7108
    -7.7100  -7.6950  -7.6950  -7.6184  -7.5944  -7.5779  -7.5779  -7.5642
    -7.5035  -7.5035  -7.3282  -7.2658  -7.2658  -7.0685  -6.9326  -6.9326
    -6.7879  -6.7757  -6.6696  -6.6255  -6.6255  -6.5803  -6.5116  -6.5116
    -6.4472  -6.4170  -6.4170  -6.3956  -6.3495  -6.2816  -6.2816  -6.2441
    -6.2351  -6.2114  -6.2063  -6.2062  -6.1858  -6.1552  -6.1178  -6.1178
    -6.1159  -6.0238  -5.9799  -5.9799  -5.7087  -5.7087  -5.6669  -5.4596
    -5.3858  -5.3858  -5.2779  -5.0205  -5.0205  -4.7967  -4.6624  -4.6624
    -4.2041  -4.1205  -4.1205  -4.0853  -4.0414  -3.8725  -3.8725  -3.4323
    -3.3999  -3.3998  -3.3198  -3.1924  -3.0712  -3.0712  -3.0599  -2.9733
    -2.7900  -2.7011  -2.5141  -2.4698  -2.4698  -2.4488  -2.3684  -2.3509
    -1.9780  -1.9356  -1.9356  -1.8612  -1.5806  -1.4988  -1.4988  -1.4062
    -1.4062  -1.4017  -1.3016  -1.1181   0.7702   0.8628   0.8628   1.9892
     2.0939   3.3749   3.5483   4.2094   4.3168   4.5845   4.5846   5.0318
     5.0318   5.1820   5.2026   5.5758   5.5758   6.0346   6.0945   6.0946
     6.1136   6.5123   6.5124   6.8279   6.9299

          k = 0.0000-0.5774 0.0000 ( 28240 PWs)   bands (ev):

   -20.9203 -20.9203 -20.5288 -20.5287 -20.4391 -20.4391 -20.1418 -20.1418
   -19.8854 -19.8854 -19.6249 -19.6248 -17.5772 -17.5770 -17.3881 -17.3879
    -9.1355  -9.1355  -8.9689  -8.9689  -8.9480  -8.9480  -8.8943  -8.8943
    -8.5415  -8.5415  -8.5271  -8.5271  -8.4452  -8.4452  -8.3232  -8.3232
    -8.3055  -8.3055  -8.2305  -8.2305  -8.2171  -8.2171  -8.1168  -8.1168
    -7.9909  -7.9908  -7.9578  -7.9577  -7.9316  -7.9316  -7.9167  -7.9167
    -7.9019  -7.9019  -7.8124  -7.8124  -7.7581  -7.7580  -7.7356  -7.7356
    -7.6666  -7.6666  -7.6475  -7.6474  -7.6080  -7.6080  -7.5300  -7.5300
    -7.5257  -7.5257  -7.4835  -7.4834  -7.2960  -7.2960  -7.0074  -7.0074
    -6.7599  -6.7599  -6.7437  -6.7437  -6.6200  -6.6200  -6.6006  -6.6006
    -6.4735  -6.4735  -6.4185  -6.4185  -6.3200  -6.3199  -6.3131  -6.3131
    -6.2277  -6.2277  -6.2258  -6.2258  -6.1191  -6.1191  -6.0736  -6.0735
    -6.0550  -6.0550  -5.8889  -5.8889  -5.5234  -5.5234  -5.3433  -5.3433
    -5.1682  -5.1682  -5.0901  -5.0901  -4.8236  -4.8236  -4.5920  -4.5920
    -4.4625  -4.4624  -4.2910  -4.2909  -4.0334  -4.0334  -3.5978  -3.5978
    -3.5083  -3.5083  -3.4301  -3.4301  -3.2408  -3.2408  -3.1925  -3.1925
    -2.9578  -2.9578  -2.7348  -2.7347  -2.3247  -2.3247  -2.2966  -2.2966
    -1.9813  -1.9813  -1.9241  -1.9240  -1.7053  -1.7053  -1.6875  -1.6875
    -1.6105  -1.6105  -1.2089  -1.2089   2.0716   2.0717   2.6569   2.6569
     3.0621   3.0621   3.3186   3.3186   4.1881   4.1881   4.8194   4.8195
     5.2578   5.2578   5.5590   5.5592   5.6315   5.6315   6.0143   6.0149
     6.2533   6.2533   6.6211   6.9225   6.9226

          k = 0.2500 0.4330 0.0000 ( 28256 PWs)   bands (ev):

   -20.9980 -20.7281 -20.7281 -20.5006 -20.4438 -20.2903 -20.2903 -20.0807
   -19.9382 -19.7565 -19.7564 -19.5695 -17.6151 -17.4838 -17.4837 -17.3476
    -9.1243  -9.1243  -9.0662  -8.9645  -8.9645  -8.9620  -8.9200  -8.7287
    -8.5697  -8.5636  -8.5268  -8.5268  -8.4603  -8.3941  -8.3941  -8.3148
    -8.2789  -8.2776  -8.2776  -8.1983  -8.1983  -8.1676  -8.1296  -8.0951
    -8.0467  -8.0207  -7.9880  -7.9570  -7.9570  -7.9245  -7.9142  -7.9096
    -7.9096  -7.8336  -7.8123  -7.8123  -7.7748  -7.7593  -7.7593  -7.7506
    -7.6941  -7.6651  -7.6651  -7.6330  -7.6077  -7.6077  -7.5908  -7.5825
    -7.5298  -7.4150  -7.4150  -7.4094  -7.2144  -7.2144  -7.1341  -6.8579
    -6.7996  -6.7768  -6.7563  -6.6981  -6.6981  -6.6592  -6.6592  -6.4982
    -6.4610  -6.4609  -6.4451  -6.4413  -6.3799  -6.3461  -6.3132  -6.2896
    -6.2896  -6.2373  -6.2242  -6.2072  -6.2072  -6.1358  -6.1357  -6.0829
    -6.0781  -5.9568  -5.9568  -5.8951  -5.6153  -5.5974  -5.3752  -5.3752
    -5.3171  -5.2146  -4.9344  -4.9343  -4.8580  -4.6843  -4.5809  -4.5809
    -4.3470  -4.1778  -4.1778  -3.9998  -3.9998  -3.9708  -3.9045  -3.7650
    -3.6815  -3.6168  -3.6168  -3.3457  -3.2735  -3.2074  -3.0373  -3.0373
    -2.8853  -2.8193  -2.8193  -2.6621  -2.6126  -2.6126  -2.3146  -2.3119
    -2.1820  -2.1820  -1.9635  -1.8750  -1.7992  -1.7992  -1.7633  -1.6395
    -1.3913  -1.3913  -1.2314   0.2427   0.3729   1.7278   2.7353   2.8321
     3.1059   3.1059   3.4917   3.4917   4.0159   4.4052   4.4052   5.0071
     5.1570   5.1570   5.7839   5.9098   6.0681   6.0681   6.2649   6.3759
     6.3759   6.5151   6.7001   6.9792   6.9792

     the Fermi energy is    -1.4497 ev

!    total energy              =   -2891.00758532 Ry
     estimated scf accuracy    <       0.00000026 Ry
     smearing contrib. (-TS)   =      -0.00128740 Ry
     internal energy E=F+TS    =   -2891.00629793 Ry

     The total energy is F=E-TS. E is the sum of the following terms:
     one-electron contribution =  -37860.58557623 Ry
     hartree contribution      =   19161.24268597 Ry
     xc contribution           =    -876.25394460 Ry
     ewald contribution        =   16684.59053693 Ry

     convergence has been achieved in  17 iterations

     negative rho (up, down):  2.867E-03 0.000E+00

     Forces acting on atoms (cartesian axes, Ry/au):

     atom    1 type  1   force =     0.00000000    0.00000080   -0.03609334
     atom    2 type  1   force =     0.00000069   -0.00000040   -0.03609334
     atom    3 type  1   force =     0.00000000    0.00000000   -0.03609245
     atom    4 type  1   force =    -0.00000069   -0.00000040   -0.03609334
     atom    5 type  2   force =     0.00000000    0.00000152   -0.04124955
     atom    6 type  2   force =     0.00000132   -0.00000076   -0.04124955
     atom    7 type  2   force =     0.00000000    0.00000000   -0.04124238
     atom    8 type  2   force =    -0.00000132   -0.00000076   -0.04124955
     atom    9 type  1   force =    -0.00000229   -0.00000132   -0.01048442
     atom   10 type  1   force =     0.00000000    0.00000000   -0.01048254
     atom   11 type  1   force =     0.00000229   -0.00000132   -0.01048442
     atom   12 type  1   force =     0.00000000    0.00000264   -0.01048442
     atom   13 type  2   force =    -0.00000353   -0.00000204   -0.00413852
     atom   14 type  2   force =     0.00000000    0.00000000   -0.00413732
     atom   15 type  2   force =     0.00000353   -0.00000204   -0.00413852
     atom   16 type  2   force =     0.00000000    0.00000408   -0.00413852
     atom   17 type  1   force =     0.00000000    0.00000321   -0.00457847
     atom   18 type  1   force =     0.00000278   -0.00000161   -0.00457847
     atom   19 type  1   force =     0.00000000    0.00000000   -0.00458275
     atom   20 type  1   force =    -0.00000278   -0.00000161   -0.00457847
     atom   21 type  2   force =     0.00000000    0.00000407    0.01516723
     atom   22 type  2   force =     0.00000352   -0.00000204    0.01516723
     atom   23 type  2   force =     0.00000000   -0.00000000    0.01515486
     atom   24 type  2   force =    -0.00000352   -0.00000204    0.01516723
     atom   25 type  1   force =    -0.00000984   -0.00000568    0.03394913
     atom   26 type  1   force =     0.00000000    0.00000000    0.03387993
     atom   27 type  1   force =     0.00000984   -0.00000568    0.03394913
     atom   28 type  1   force =     0.00000000    0.00001137    0.03394913
     atom   29 type  2   force =    -0.00000129   -0.00000075    0.04742717
     atom   30 type  2   force =     0.00000000   -0.00000000    0.04750493
     atom   31 type  2   force =     0.00000129   -0.00000075    0.04742717
     atom   32 type  2   force =     0.00000000    0.00000150    0.04742717

     Total force =     0.164737     Total SCF correction =     0.002295
     Energy error            =      4.8E-02 Ry
     Gradient error          =      4.8E-02 Ry/Bohr

     number of scf cycles    =   3
     number of bfgs steps    =   2

     energy             old  =   -2890.9598888184 Ry
     energy             new  =   -2891.0075853217 Ry

     CASE: energy            _new < energy            _old

     new trust radius        =       0.1563297252 bohr
     new conv_thr            =       0.0000004750 Ry


ATOMIC_POSITIONS (angstrom)
Zn              -0.0000020000        1.7729313699       -0.1588017055
Zn              -1.5353990816        4.4323173150       -0.1588017055
Zn               3.0707980000        1.7729280000       -0.1588022149
Zn               1.5353950816        4.4323173150       -0.1588017055
O               -0.0000020000        1.7729290050        1.8096730584
O               -1.5354011297        4.4323184975        1.8096730584
O                3.0707980000        1.7729280000        1.8096724444
O                1.5353971297        4.4323184975        1.8096730584
Zn               1.5353955462        0.8864592739        2.4581653674
Zn               0.0000020000        3.5458540000        2.4581674128
Zn               4.6062084538        0.8864592739        2.4581653674
Zn               3.0708020000        3.5458614522        2.4581653674
O                1.5354026569        0.8864633793        4.2997600834
O                0.0000020000        3.5458540000        4.2997529758
O                4.6062013431        0.8864633793        4.2997600834
O                3.0708020000        3.5458532415        4.2997600834
Zn              -0.0000020000        1.7729350631        4.9379761413
Zn              -1.5353958832        4.4323154685        4.9379761413
Zn               3.0707980000        1.7729280000        4.9379613825
Zn               1.5353918832        4.4323154685        4.9379761413
O               -0.0000020000        1.7729459220        6.7657381078
O               -1.5353864791        4.4323100390        6.7657381078
O                3.0707980000        1.7729280000        6.7657252586
O                1.5353824791        4.4323100390        6.7657381078
Zn               1.5354023024        0.8864631746        7.5697193980
Zn               0.0000020000        3.5458540000        7.5697444405
Zn               4.6062016976        0.8864631746        7.5697193980
Zn               3.0708020000        3.5458536508        7.5697193980
O                1.5353972289        0.8864602454        9.3382024985
O                0.0000020000        3.5458540000        9.3382554525
O                4.6062067711        0.8864602454        9.3382024985
O                3.0708020000        3.5458595092        9.3382024985



     Writing config-only to output data dir ./tmp/zno_slab_pure.save/ :
     XML data file
     NEW-OLD atomic charge density approx. for the potential

     Check: negative core charge=   -0.000001

     negative rho (up, down):  2.399E-03 0.000E+00

     total cpu time spent up to now is     4742.1 secs

     per-process dynamical memory:   877.7 Mb

     Self-consistent Calculation

     iteration #  1     ecut=    40.00 Ry     beta= 0.30
     Davidson diagonalization with overlap
     ethr =  1.00E-06,  avg # of iterations = 17.8

     negative rho (up, down):  2.306E-03 0.000E+00

     total cpu time spent up to now is     4904.7 secs

     total energy              =   -2891.06818474 Ry
     estimated scf accuracy    <       0.28175261 Ry

     iteration #  2     ecut=    40.00 Ry     beta= 0.30
     Davidson diagonalization with overlap
     ethr =  9.78E-05,  avg # of iterations =  1.0

     negative rho (up, down):  2.308E-03 0.000E+00

     total cpu time spent up to now is     4944.1 secs

     total energy              =   -2891.07018334 Ry
     estimated scf accuracy    <       0.09544318 Ry

     iteration #  3     ecut=    40.00 Ry     beta= 0.30
     Davidson diagonalization with overlap
     ethr =  3.31E-05,  avg # of iterations =  1.0

     negative rho (up, down):  2.387E-03 0.000E+00

     total cpu time spent up to now is     4983.5 secs

     total energy              =   -2891.07067000 Ry
     estimated scf accuracy    <       0.01952569 Ry

     iteration #  4     ecut=    40.00 Ry     beta= 0.30
     Davidson diagonalization with overlap
     ethr =  6.78E-06,  avg # of iterations =  1.0

     negative rho (up, down):  2.456E-03 0.000E+00

     total cpu time spent up to now is     5022.0 secs

     total energy              =   -2891.07049924 Ry
     estimated scf accuracy    <       0.00615826 Ry

     iteration #  5     ecut=    40.00 Ry     beta= 0.30
     Davidson diagonalization with overlap
     ethr =  2.14E-06,  avg # of iterations =  2.0

     negative rho (up, down):  2.568E-03 0.000E+00

     total cpu time spent up to now is     5064.9 secs

     total energy              =   -2891.07034195 Ry
     estimated scf accuracy    <       0.00591217 Ry

     iteration #  6     ecut=    40.00 Ry     beta= 0.30
     Davidson diagonalization with overlap
     ethr =  2.05E-06,  avg # of iterations =  3.5

     negative rho (up, down):  1.697E-03 0.000E+00

     total cpu time spent up to now is     5108.1 secs

     total energy              =   -2891.07035328 Ry
     estimated scf accuracy    <       0.00092486 Ry

     iteration #  7     ecut=    40.00 Ry     beta= 0.30
     Davidson diagonalization with overlap
     ethr =  3.21E-07,  avg # of iterations =  2.0

     negative rho (up, down):  1.397E-03 0.000E+00

     total cpu time spent up to now is     5151.7 secs

     total energy              =   -2891.07029065 Ry
     estimated scf accuracy    <       0.00347309 Ry

     iteration #  8     ecut=    40.00 Ry     beta= 0.30
     Davidson diagonalization with overlap
     ethr =  3.21E-07,  avg # of iterations =  2.0

     negative rho (up, down):  1.380E-03 0.000E+00

     total cpu time spent up to now is     5192.3 secs

     total energy              =   -2891.07035416 Ry
     estimated scf accuracy    <       0.00013736 Ry

     iteration #  9     ecut=    40.00 Ry     beta= 0.30
     Davidson diagonalization with overlap
     ethr =  4.77E-08,  avg # of iterations =  3.0

     negative rho (up, down):  1.419E-03 0.000E+00

     total cpu time spent up to now is     5235.3 secs

     total energy              =   -2891.07035742 Ry
     estimated scf accuracy    <       0.00056978 Ry

     iteration # 10     ecut=    40.00 Ry     beta= 0.30
     Davidson diagonalization with overlap
     ethr =  4.77E-08,  avg # of iterations =  1.8

     negative rho (up, down):  1.439E-03 0.000E+00

     total cpu time spent up to now is     5275.9 secs

     total energy              =   -2891.07036060 Ry
     estimated scf accuracy    <       0.00006970 Ry

     iteration # 11     ecut=    40.00 Ry     beta= 0.30
     Davidson diagonalization with overlap
     ethr =  2.42E-08,  avg # of iterations =  2.0

     negative rho (up, down):  1.507E-03 0.000E+00

     total cpu time spent up to now is     5318.8 secs

     total energy              =   -2891.07036269 Ry
     estimated scf accuracy    <       0.00001364 Ry

     iteration # 12     ecut=    40.00 Ry     beta= 0.30
     Davidson diagonalization with overlap
     ethr =  4.74E-09,  avg # of iterations =  4.0

     negative rho (up, down):  1.554E-03 0.000E+00

     total cpu time spent up to now is     5364.6 secs

     total energy              =   -2891.07036494 Ry
     estimated scf accuracy    <       0.00000964 Ry

     iteration # 13     ecut=    40.00 Ry     beta= 0.30
     Davidson diagonalization with overlap
     ethr =  3.35E-09,  avg # of iterations =  1.8

     negative rho (up, down):  1.804E-03 0.000E+00

     total cpu time spent up to now is     5407.1 secs

     total energy              =   -2891.07036698 Ry
     estimated scf accuracy    <       0.00000622 Ry

     iteration # 14     ecut=    40.00 Ry     beta= 0.30
     Davidson diagonalization with overlap
     ethr =  2.16E-09,  avg # of iterations =  2.0

     negative rho (up, down):  1.921E-03 0.000E+00

     total cpu time spent up to now is     5450.2 secs

     total energy              =   -2891.07036803 Ry
     estimated scf accuracy    <       0.00000363 Ry

     iteration # 15     ecut=    40.00 Ry     beta= 0.30
     Davidson diagonalization with overlap
     ethr =  1.26E-09,  avg # of iterations =  1.8

     negative rho (up, down):  2.123E-03 0.000E+00

     total cpu time spent up to now is     5492.6 secs

     total energy              =   -2891.07036860 Ry
     estimated scf accuracy    <       0.00000192 Ry

     iteration # 16     ecut=    40.00 Ry     beta= 0.30
     Davidson diagonalization with overlap
     ethr =  6.67E-10,  avg # of iterations =  2.0

     negative rho (up, down):  2.252E-03 0.000E+00

     total cpu time spent up to now is     5535.5 secs

     total energy              =   -2891.07036878 Ry
     estimated scf accuracy    <       0.00000153 Ry

     iteration # 17     ecut=    40.00 Ry     beta= 0.30
     Davidson diagonalization with overlap
     ethr =  5.31E-10,  avg # of iterations =  1.8

     negative rho (up, down):  2.297E-03 0.000E+00

     total cpu time spent up to now is     5569.3 secs

     total energy              =   -2891.07036877 Ry
     estimated scf accuracy    <       0.00000060 Ry

     iteration # 18     ecut=    40.00 Ry     beta= 0.30
     Davidson diagonalization with overlap
     ethr =  2.07E-10,  avg # of iterations =  2.0

     negative rho (up, down):  2.360E-03 0.000E+00

     total cpu time spent up to now is     5602.6 secs

     total energy              =   -2891.07036869 Ry
     estimated scf accuracy    <       0.00000064 Ry

     iteration # 19     ecut=    40.00 Ry     beta= 0.30
     Davidson diagonalization with overlap
     ethr =  2.07E-10,  avg # of iterations =  1.5

     negative rho (up, down):  2.549E-03 0.000E+00

     total cpu time spent up to now is     5632.2 secs

     End of self-consistent calculation

          k = 0.0000 0.0000 0.0000 ( 28285 PWs)   bands (ev):

   -21.0033 -20.5174 -20.2111 -20.2111 -20.2110 -19.9780 -19.9780 -19.9780
   -19.9188 -19.3934 -19.3934 -19.3934 -17.8598 -17.4933 -17.4933 -17.4933
    -9.0176  -9.0176  -9.0176  -9.0070  -8.8073  -8.8073  -8.8073  -8.5805
    -8.3617  -8.3616  -8.3372  -8.3372  -8.3372  -8.2918  -8.2839  -8.2839
    -8.2838  -8.1982  -8.1982  -8.1981  -8.1745  -8.1283  -8.1282  -8.1282
    -8.0570  -8.0570  -7.9529  -7.9529  -7.7122  -7.7122  -7.7122  -7.6943
    -7.6943  -7.6943  -7.6710  -7.6710  -7.6705  -7.6705  -7.6705  -7.6588
    -7.6588  -7.6588  -7.4768  -7.4768  -7.4630  -7.4630  -7.4630  -7.3724
    -7.3724  -7.3724  -7.1212  -7.1212  -7.1211  -6.6585  -6.6585  -6.6585
    -6.6005  -6.6005  -6.5289  -6.5289  -6.5289  -6.4458  -6.4458  -6.4458
    -6.4098  -6.4098  -6.4097  -6.3815  -6.3815  -6.2991  -6.2990  -6.2990
    -6.1846  -6.1634  -6.1634  -6.1628  -6.1628  -6.1628  -6.0554  -6.0554
    -6.0554  -5.9683  -5.9682  -5.9682  -5.7476  -5.7476  -5.7476  -5.6339
    -5.3043  -5.3043  -5.3043  -4.8894  -4.8894  -4.8894  -4.2256  -4.1821
    -4.1821  -4.1821  -3.9851  -3.9851  -3.9851  -3.4942  -3.4942  -3.4942
    -3.3304  -3.3303  -3.3303  -2.9709  -2.7345  -2.7345  -2.7345  -2.6290
    -2.6289  -2.5847  -2.5847  -2.5847  -2.3047  -2.3047  -2.0326  -2.0326
    -2.0326  -1.7771  -1.7771  -1.6887  -1.3484  -1.3484  -1.3484  -1.1064
    -1.1064  -0.8485  -0.8485  -0.8485  -0.3997  -0.3997  -0.3997   0.1770
     1.6351   2.9404   3.7349   4.5450   4.5450   4.5451   4.7575   4.7575
     4.7575   4.8302   5.4439   5.4439   5.4440   5.7166   6.5347   6.5532
     6.5533   6.5539   6.5983   6.8462   6.8462

          k = 0.0000 0.2887 0.0000 ( 28254 PWs)   bands (ev):

   -20.8993 -20.4375 -20.3441 -20.2158 -20.2158 -20.0519 -19.9788 -19.9788
   -19.8460 -19.4750 -19.3947 -19.3947 -17.8085 -17.5495 -17.4936 -17.4936
    -8.9924  -8.9246  -8.9124  -8.9123  -8.7775  -8.7104  -8.7103  -8.6057
    -8.3911  -8.3402  -8.3402  -8.3328  -8.3113  -8.2659  -8.2336  -8.2336
    -8.1880  -8.1750  -8.1615  -8.1615  -8.1445  -8.1126  -8.0984  -8.0984
    -8.0353  -8.0078  -7.9540  -7.8930  -7.8002  -7.8002  -7.7827  -7.7827
    -7.7648  -7.7499  -7.7008  -7.6922  -7.6899  -7.6594  -7.6593  -7.6547
    -7.5901  -7.5900  -7.5195  -7.4893  -7.4893  -7.4839  -7.4314  -7.4305
    -7.3558  -7.3558  -7.1952  -7.1404  -7.1403  -6.9409  -6.8056  -6.8056
    -6.6160  -6.5974  -6.5695  -6.5335  -6.5335  -6.4909  -6.4608  -6.4608
    -6.4472  -6.4340  -6.4340  -6.4277  -6.3789  -6.2319  -6.2237  -6.2237
    -6.1870  -6.1625  -6.1543  -6.1199  -6.1119  -6.1119  -6.1017  -6.0607
    -6.0607  -5.9281  -5.9074  -5.9074  -5.6249  -5.6248  -5.5603  -5.4689
    -5.2643  -5.2643  -5.1967  -4.8883  -4.8883  -4.6909  -4.5097  -4.5097
    -4.1793  -3.9990  -3.9990  -3.9794  -3.9217  -3.7592  -3.7592  -3.3261
    -3.3261  -3.2997  -3.2191  -3.1426  -3.0085  -2.9603  -2.9603  -2.8398
    -2.7469  -2.5800  -2.4660  -2.4538  -2.4538  -2.4452  -2.3430  -2.3053
    -2.0117  -2.0117  -1.9316  -1.9058  -1.6248  -1.5080  -1.5080  -1.4248
    -1.4098  -1.4098  -1.3120  -1.1398   0.8477   0.8644   0.8644   2.0054
     2.1300   3.3346   3.6101   4.2322   4.3724   4.6516   4.6517   5.1001
     5.1001   5.1506   5.1681   5.6004   5.6004   6.0140   6.0438   6.0438
     6.0444   6.4383   6.4384   6.8151   6.9276

          k = 0.0000-0.5774 0.0000 ( 28240 PWs)   bands (ev):

   -20.6348 -20.6348 -20.2432 -20.2431 -20.2206 -20.2205 -19.9797 -19.9797
   -19.6649 -19.6649 -19.3961 -19.3961 -17.6815 -17.6815 -17.4940 -17.4939
    -8.8853  -8.8853  -8.7337  -8.7337  -8.7217  -8.7217  -8.6675  -8.6675
    -8.3681  -8.3681  -8.3531  -8.3531  -8.2097  -8.2097  -8.1987  -8.1987
    -8.1608  -8.1608  -8.1392  -8.1392  -8.1357  -8.1357  -8.0534  -8.0534
    -7.9035  -7.9035  -7.8876  -7.8876  -7.8562  -7.8561  -7.8458  -7.8458
    -7.7671  -7.7671  -7.7473  -7.7473  -7.6502  -7.6502  -7.6269  -7.6269
    -7.5751  -7.5751  -7.5184  -7.5184  -7.5068  -7.5068  -7.4019  -7.4019
    -7.3859  -7.3859  -7.3210  -7.3209  -7.1614  -7.1614  -6.8670  -6.8670
    -6.6191  -6.6191  -6.5854  -6.5853  -6.5652  -6.5652  -6.5028  -6.5028
    -6.4753  -6.4753  -6.4214  -6.4214  -6.3381  -6.3380  -6.3205  -6.3205
    -6.1954  -6.1953  -6.1505  -6.1505  -6.1000  -6.1000  -6.0712  -6.0712
    -5.9481  -5.9481  -5.8440  -5.8440  -5.4200  -5.4200  -5.1880  -5.1880
    -5.1083  -5.1083  -4.9829  -4.9829  -4.6945  -4.6945  -4.5038  -4.5038
    -4.3202  -4.3202  -4.2517  -4.2517  -3.9254  -3.9254  -3.5332  -3.5332
    -3.3600  -3.3600  -3.3033  -3.3033  -3.2111  -3.2111  -3.1336  -3.1336
    -2.8678  -2.8677  -2.6586  -2.6586  -2.2883  -2.2883  -2.2309  -2.2309
    -2.0061  -2.0061  -1.9953  -1.9952  -1.7383  -1.7383  -1.7148  -1.7148
    -1.6122  -1.6122  -1.2247  -1.2247   2.1347   2.1347   2.6638   2.6638
     3.1075   3.1076   3.3610   3.3610   4.1443   4.1443   4.8666   4.8666
     5.2549   5.2549   5.6063   5.6063   5.6222   5.6222   5.9834   5.9834
     6.2387   6.2388   6.3881   6.3882   6.9125

          k = 0.2500 0.4330 0.0000 ( 28256 PWs)   bands (ev):

   -20.7148 -20.4347 -20.4347 -20.3003 -20.1246 -20.1076 -20.1076 -19.9322
   -19.7189 -19.5323 -19.5323 -19.3385 -17.7192 -17.5889 -17.5889 -17.4539
    -8.8692  -8.8692  -8.8405  -8.7422  -8.7422  -8.7047  -8.6913  -8.5244
    -8.3952  -8.3700  -8.3417  -8.3417  -8.2550  -8.2353  -8.2353  -8.1704
    -8.1704  -8.1613  -8.1477  -8.1042  -8.0957  -8.0957  -8.0700  -8.0014
    -7.9927  -7.9054  -7.9037  -7.8862  -7.8862  -7.8646  -7.8260  -7.8260
    -7.7798  -7.7353  -7.7283  -7.7283  -7.7113  -7.6519  -7.6501  -7.6501
    -7.6029  -7.5296  -7.5296  -7.5052  -7.4898  -7.4898  -7.4878  -7.4811
    -7.3652  -7.2819  -7.2819  -7.2124  -7.0841  -7.0841  -6.9876  -6.7291
    -6.6235  -6.6179  -6.5930  -6.5930  -6.5811  -6.5197  -6.5197  -6.5166
    -6.4792  -6.4771  -6.4703  -6.4703  -6.3740  -6.3229  -6.3084  -6.3084
    -6.2541  -6.1916  -6.1778  -6.1778  -6.1560  -6.1157  -6.0763  -6.0763
    -5.9828  -5.9308  -5.9308  -5.8081  -5.5689  -5.4702  -5.2237  -5.2237
    -5.1882  -5.1760  -4.8741  -4.8741  -4.7077  -4.5196  -4.5060  -4.5060
    -4.2805  -4.0747  -4.0747  -3.8829  -3.8829  -3.8296  -3.8269  -3.6557
    -3.6074  -3.5070  -3.5070  -3.2940  -3.2224  -3.0838  -2.9941  -2.9940
    -2.8212  -2.7282  -2.7282  -2.5909  -2.5488  -2.5488  -2.3053  -2.2279
    -2.1848  -2.1848  -2.0363  -1.8784  -1.8615  -1.8615  -1.7964  -1.6770
    -1.4051  -1.4051  -1.2500   0.2605   0.3528   1.7939   2.7593   2.8711
     3.1506   3.1506   3.5460   3.5460   3.9673   4.4210   4.4211   5.0032
     5.0984   5.0984   5.7614   5.9489   6.0044   6.0045   6.3160   6.3881
     6.3882   6.5068   6.7366   6.9624   6.9625

     the Fermi energy is    -1.4602 ev

!    total energy              =   -2891.07036831 Ry
     estimated scf accuracy    <       0.00000027 Ry
     smearing contrib. (-TS)   =      -0.00180554 Ry
     internal energy E=F+TS    =   -2891.06856277 Ry

     The total energy is F=E-TS. E is the sum of the following terms:
     one-electron contribution =  -37290.07323918 Ry
     hartree contribution      =   18876.87009337 Ry
     xc contribution           =    -875.97722280 Ry
     ewald contribution        =   16398.11180584 Ry

     convergence has been achieved in  19 iterations

     negative rho (up, down):  2.549E-03 0.000E+00

     Forces acting on atoms (cartesian axes, Ry/au):

     atom    1 type  1   force =     0.00000000    0.00000030   -0.01713497
     atom    2 type  1   force =     0.00000026   -0.00000015   -0.01713497
     atom    3 type  1   force =     0.00000000    0.00000000   -0.01713258
     atom    4 type  1   force =    -0.00000026   -0.00000015   -0.01713497
     atom    5 type  2   force =     0.00000000    0.00000012   -0.05000573
     atom    6 type  2   force =     0.00000010   -0.00000006   -0.05000573
     atom    7 type  2   force =     0.00000000   -0.00000000   -0.05000256
     atom    8 type  2   force =    -0.00000010   -0.00000006   -0.05000573
     atom    9 type  1   force =     0.00000396    0.00000229   -0.01974620
     atom   10 type  1   force =     0.00000000    0.00000000   -0.01975191
     atom   11 type  1   force =    -0.00000396    0.00000229   -0.01974620
     atom   12 type  1   force =     0.00000000   -0.00000457   -0.01974620
     atom   13 type  2   force =    -0.00000459   -0.00000265   -0.00029344
     atom   14 type  2   force =     0.00000000    0.00000000   -0.00029198
     atom   15 type  2   force =     0.00000459   -0.00000265   -0.00029344
     atom   16 type  2   force =     0.00000000    0.00000530   -0.00029344
     atom   17 type  1   force =     0.00000000   -0.00000750   -0.00393645
     atom   18 type  1   force =    -0.00000650    0.00000375   -0.00393645
     atom   19 type  1   force =     0.00000000    0.00000000   -0.00392931
     atom   20 type  1   force =     0.00000650    0.00000375   -0.00393645
     atom   21 type  2   force =     0.00000000   -0.00000808    0.03661702
     atom   22 type  2   force =    -0.00000700    0.00000404    0.03661702
     atom   23 type  2   force =     0.00000000    0.00000000    0.03661564
     atom   24 type  2   force =     0.00000700    0.00000404    0.03661702
     atom   25 type  1   force =    -0.00000101   -0.00000058   -0.00481870
     atom   26 type  1   force =     0.00000000   -0.00000000   -0.00485211
     atom   27 type  1   force =     0.00000101   -0.00000058   -0.00481870
     atom   28 type  1   force =     0.00000000    0.00000116   -0.00481870
     atom   29 type  2   force =    -0.00000067   -0.00000038    0.05932559
     atom   30 type  2   force =     0.00000000   -0.00000000    0.05932349
     atom   31 type  2   force =     0.00000067   -0.00000038    0.05932559
     atom   32 type  2   force =     0.00000000    0.00000077    0.05932559

     Total force =     0.179813     Total SCF correction =     0.002383
     Energy error            =      6.3E-02 Ry
     Gradient error          =      5.9E-02 Ry/Bohr

     number of scf cycles    =   4
     number of bfgs steps    =   3

     energy             old  =   -2891.0075853217 Ry
     energy             new  =   -2891.0703683056 Ry

     CASE: energy            _new < energy            _old

     new trust radius        =       0.2344945877 bohr
     new conv_thr            =       0.0000005933 Ry


ATOMIC_POSITIONS (angstrom)
Zn              -0.0000020000        1.7729339937       -0.2828908974
Zn              -1.5353968093        4.4323160031       -0.2828908974
Zn               3.0707980000        1.7729280000       -0.2828870692
Zn               1.5353928093        4.4323160031       -0.2828908974
O               -0.0000020000        1.7729302071        1.7253660331
O               -1.5354000886        4.4323178964        1.7253660331
O                3.0707980000        1.7729280000        1.7253656089
O                1.5353960886        4.4323178964        1.7253660331
Zn               1.5353964533        0.8864597976        2.4362649726
Zn               0.0000020000        3.5458540000        2.4362610203
Zn               4.6062075467        0.8864597976        2.4362649726
Zn               3.0708020000        3.5458604047        2.4362649726
O                1.5354002057        0.8864619641        4.2774969883
O                0.0000020000        3.5458540000        4.2774853584
O                4.6062037943        0.8864619641        4.2774969883
O                3.0708020000        3.5458560718        4.2774969883
Zn              -0.0000020000        1.7729332931        4.9463658001
Zn              -1.5353974161        4.4323163535        4.9463658001
Zn               3.0707980000        1.7729280000        4.9463432146
Zn               1.5353934161        4.4323163535        4.9463658001
O               -0.0000020000        1.7729517807        6.7811789288
O               -1.5353814053        4.4323071096        6.7811789288
O                3.0707980000        1.7729280000        6.7811593601
O                1.5353774053        4.4323071096        6.7811789288
Zn               1.5354036387        0.8864639461        7.6876455680
Zn               0.0000020000        3.5458540000        7.6876324374
Zn               4.6062003613        0.8864639461        7.6876455680
Zn               3.0708020000        3.5458521077        7.6876455680
O                1.5353933872        0.8864580274        9.4490124515
O                0.0000020000        3.5458540000        9.4490965345
O                4.6062106128        0.8864580274        9.4490124515
O                3.0708020000        3.5458639452        9.4490124515



     Writing config-only to output data dir ./tmp/zno_slab_pure.save/ :
     XML data file
     NEW-OLD atomic charge density approx. for the potential

     Check: negative core charge=   -0.000001

     negative rho (up, down):  2.302E-03 0.000E+00

     total cpu time spent up to now is     5642.0 secs

     per-process dynamical memory:   877.7 Mb

     Self-consistent Calculation

     iteration #  1     ecut=    40.00 Ry     beta= 0.30
     Davidson diagonalization with overlap
     c_bands:  3 eigenvalues not converged
     c_bands:  1 eigenvalues not converged
     c_bands:  2 eigenvalues not converged
     ethr =  1.00E-06,  avg # of iterations = 19.0

     negative rho (up, down):  2.259E-03 0.000E+00

     total cpu time spent up to now is     5799.5 secs

     total energy              =   -2891.12763802 Ry
     estimated scf accuracy    <       1.43016745 Ry

     iteration #  2     ecut=    40.00 Ry     beta= 0.30
     Davidson diagonalization with overlap
     ethr =  4.97E-04,  avg # of iterations =  1.0

     negative rho (up, down):  2.277E-03 0.000E+00

     total cpu time spent up to now is     5830.1 secs

     total energy              =   -2891.14402224 Ry
     estimated scf accuracy    <       0.68662880 Ry

     iteration #  3     ecut=    40.00 Ry     beta= 0.30
     Davidson diagonalization with overlap
     ethr =  2.38E-04,  avg # of iterations =  1.0

     negative rho (up, down):  2.902E-03 0.000E+00

     total cpu time spent up to now is     5862.4 secs

     total energy              =   -2891.14870597 Ry
     estimated scf accuracy    <       0.02327863 Ry

     iteration #  4     ecut=    40.00 Ry     beta= 0.30
     Davidson diagonalization with overlap
     c_bands:  1 eigenvalues not converged
     ethr =  8.08E-06,  avg # of iterations =  6.0

     negative rho (up, down):  2.866E-03 0.000E+00

     total cpu time spent up to now is     5897.5 secs

     total energy              =   -2891.14861863 Ry
     estimated scf accuracy    <       0.01329968 Ry

     iteration #  5     ecut=    40.00 Ry     beta= 0.30
     Davidson diagonalization with overlap
     ethr =  4.62E-06,  avg # of iterations =  4.0

     negative rho (up, down):  3.205E-03 0.000E+00

     total cpu time spent up to now is     5932.1 secs

     total energy              =   -2891.14839462 Ry
     estimated scf accuracy    <       0.01226029 Ry

     iteration #  6     ecut=    40.00 Ry     beta= 0.30
     Davidson diagonalization with overlap
     ethr =  4.26E-06,  avg # of iterations =  1.5

     negative rho (up, down):  2.182E-03 0.000E+00

     total cpu time spent up to now is     5964.2 secs

     total energy              =   -2891.14855107 Ry
     estimated scf accuracy    <       0.00092327 Ry

     iteration #  7     ecut=    40.00 Ry     beta= 0.30
     Davidson diagonalization with overlap
     ethr =  3.21E-07,  avg # of iterations =  8.0

     negative rho (up, down):  1.732E-03 0.000E+00

     total cpu time spent up to now is     6003.1 secs

     total energy              =   -2891.14857599 Ry
     estimated scf accuracy    <       0.00673785 Ry

     iteration #  8     ecut=    40.00 Ry     beta= 0.30
     Davidson diagonalization with overlap
     ethr =  3.21E-07,  avg # of iterations =  1.5

     negative rho (up, down):  1.634E-03 0.000E+00

     total cpu time spent up to now is     6037.6 secs

     total energy              =   -2891.14860122 Ry
     estimated scf accuracy    <       0.00075602 Ry

     iteration #  9     ecut=    40.00 Ry     beta= 0.30
     Davidson diagonalization with overlap
     ethr =  2.63E-07,  avg # of iterations =  1.0

     negative rho (up, down):  1.569E-03 0.000E+00

     total cpu time spent up to now is     6067.9 secs

     total energy              =   -2891.14860178 Ry
     estimated scf accuracy    <       0.00054730 Ry

     iteration # 10     ecut=    40.00 Ry     beta= 0.30
     Davidson diagonalization with overlap
     ethr =  1.90E-07,  avg # of iterations =  1.5

     negative rho (up, down):  1.560E-03 0.000E+00

     total cpu time spent up to now is     6098.9 secs

     total energy              =   -2891.14860875 Ry
     estimated scf accuracy    <       0.00005809 Ry

     iteration # 11     ecut=    40.00 Ry     beta= 0.30
     Davidson diagonalization with overlap
     ethr =  2.02E-08,  avg # of iterations =  2.5

     negative rho (up, down):  1.571E-03 0.000E+00

     total cpu time spent up to now is     6131.7 secs

     total energy              =   -2891.14860831 Ry
     estimated scf accuracy    <       0.00006771 Ry

     iteration # 12     ecut=    40.00 Ry     beta= 0.30
     Davidson diagonalization with overlap
     ethr =  2.02E-08,  avg # of iterations =  1.5

     negative rho (up, down):  1.606E-03 0.000E+00

     total cpu time spent up to now is     6162.6 secs

     total energy              =   -2891.14861015 Ry
     estimated scf accuracy    <       0.00001302 Ry

     iteration # 13     ecut=    40.00 Ry     beta= 0.30
     Davidson diagonalization with overlap
     ethr =  4.52E-09,  avg # of iterations =  3.5

     negative rho (up, down):  1.701E-03 0.000E+00

     total cpu time spent up to now is     6196.3 secs

     total energy              =   -2891.14861075 Ry
     estimated scf accuracy    <       0.00001195 Ry

     iteration # 14     ecut=    40.00 Ry     beta= 0.30
     Davidson diagonalization with overlap
     ethr =  4.15E-09,  avg # of iterations =  2.0

     negative rho (up, down):  1.823E-03 0.000E+00

     total cpu time spent up to now is     6228.5 secs

     total energy              =   -2891.14861139 Ry
     estimated scf accuracy    <       0.00000437 Ry

     iteration # 15     ecut=    40.00 Ry     beta= 0.30
     Davidson diagonalization with overlap
     ethr =  1.52E-09,  avg # of iterations =  2.5

     negative rho (up, down):  1.847E-03 0.000E+00

     total cpu time spent up to now is     6261.7 secs

     total energy              =   -2891.14861186 Ry
     estimated scf accuracy    <       0.00000309 Ry

     iteration # 16     ecut=    40.00 Ry     beta= 0.30
     Davidson diagonalization with overlap
     ethr =  1.07E-09,  avg # of iterations =  2.0

     negative rho (up, down):  1.945E-03 0.000E+00

     total cpu time spent up to now is     6293.6 secs

     total energy              =   -2891.14861210 Ry
     estimated scf accuracy    <       0.00000372 Ry

     iteration # 17     ecut=    40.00 Ry     beta= 0.30
     Davidson diagonalization with overlap
     ethr =  1.07E-09,  avg # of iterations =  2.0

     negative rho (up, down):  1.996E-03 0.000E+00

     total cpu time spent up to now is     6325.3 secs

     total energy              =   -2891.14861232 Ry
     estimated scf accuracy    <       0.00000106 Ry

     iteration # 18     ecut=    40.00 Ry     beta= 0.30
     Davidson diagonalization with overlap
     ethr =  3.67E-10,  avg # of iterations =  2.0

     negative rho (up, down):  2.089E-03 0.000E+00

     total cpu time spent up to now is     6358.6 secs

     total energy              =   -2891.14861239 Ry
     estimated scf accuracy    <       0.00000070 Ry

     iteration # 19     ecut=    40.00 Ry     beta= 0.30
     Davidson diagonalization with overlap
     ethr =  2.42E-10,  avg # of iterations =  2.0

     negative rho (up, down):  2.430E-03 0.000E+00

     total cpu time spent up to now is     6388.7 secs

     End of self-consistent calculation

          k = 0.0000 0.0000 0.0000 ( 28285 PWs)   bands (ev):

   -20.6864 -20.2138 -19.8878 -19.8878 -19.8878 -19.7127 -19.7127 -19.7127
   -19.6211 -19.0733 -19.0733 -19.0733 -17.8978 -17.5309 -17.5309 -17.5306
    -8.7272  -8.6877  -8.6877  -8.6877  -8.5793  -8.5792  -8.5792  -8.4327
    -8.2864  -8.2864  -8.2864  -8.2375  -8.1456  -8.1456  -8.1456  -8.0406
    -8.0406  -8.0378  -8.0204  -8.0204  -7.9534  -7.9534  -7.9533  -7.9485
    -7.9485  -7.9485  -7.7777  -7.7777  -7.6809  -7.6808  -7.6808  -7.6062
    -7.6062  -7.6062  -7.5681  -7.5681  -7.5471  -7.5471  -7.5471  -7.4746
    -7.4746  -7.4746  -7.3672  -7.3672  -7.3672  -7.2348  -7.2348  -7.1788
    -7.1788  -7.1788  -6.9584  -6.9584  -6.9584  -6.5857  -6.5857  -6.5856
    -6.4677  -6.4677  -6.4677  -6.4282  -6.4282  -6.3971  -6.3971  -6.3659
    -6.3659  -6.3659  -6.2651  -6.2651  -6.2651  -6.2351  -6.1977  -6.1977
    -6.1977  -6.1706  -6.1705  -6.1705  -6.0957  -6.0957  -5.9777  -5.9777
    -5.9777  -5.9245  -5.9245  -5.9245  -5.6739  -5.5964  -5.5964  -5.5964
    -5.1335  -5.1334  -5.1334  -4.7516  -4.7516  -4.7515  -4.2469  -3.9780
    -3.9780  -3.9780  -3.9201  -3.9201  -3.9201  -3.3275  -3.3275  -3.3274
    -3.2699  -3.2698  -3.2698  -2.9969  -2.5818  -2.5818  -2.5818  -2.5663
    -2.5663  -2.5663  -2.5163  -2.5162  -2.2172  -2.2172  -2.1300  -2.1300
    -2.1300  -1.7735  -1.7182  -1.7182  -1.3526  -1.3526  -1.3526  -1.1193
    -1.1193  -0.8342  -0.8342  -0.8342  -0.4135  -0.4135  -0.4135   0.2130
     1.6229   2.8523   3.7542   4.5721   4.5722   4.5722   4.7119   4.7119
     4.7120   4.8050   5.3902   5.3902   5.3902   5.6827   6.2493   6.2494
     6.2494   6.4872   6.5256   6.8982   6.8983

          k = 0.0000 0.2887 0.0000 ( 28254 PWs)   bands (ev):

   -20.5831 -20.1373 -20.0265 -19.8931 -19.8931 -19.7757 -19.7127 -19.7127
   -19.5460 -19.1592 -19.0748 -19.0748 -17.8464 -17.5870 -17.5312 -17.5310
    -8.6758  -8.6495  -8.6027  -8.6027  -8.5322  -8.4748  -8.4747  -8.3985
    -8.2562  -8.2316  -8.2316  -8.1423  -8.1379  -8.1303  -8.1303  -8.1018
    -8.0270  -8.0124  -7.9826  -7.9826  -7.9707  -7.9645  -7.9489  -7.9253
    -7.9026  -7.9026  -7.7952  -7.7583  -7.7583  -7.7333  -7.7290  -7.6512
    -7.6512  -7.6353  -7.5917  -7.5652  -7.5373  -7.5346  -7.5346  -7.5283
    -7.4350  -7.4350  -7.3702  -7.3702  -7.3306  -7.2791  -7.2271  -7.1964
    -7.1470  -7.1470  -7.0205  -6.9768  -6.9768  -6.7903  -6.6717  -6.6717
    -6.5691  -6.5389  -6.5388  -6.4651  -6.4413  -6.4413  -6.4284  -6.4248
    -6.4240  -6.3940  -6.3116  -6.2792  -6.2792  -6.2399  -6.2271  -6.2015
    -6.2015  -6.1068  -6.0952  -6.0723  -6.0288  -6.0288  -6.0278  -5.9695
    -5.9695  -5.8176  -5.8142  -5.8142  -5.5138  -5.5138  -5.4953  -5.4425
    -5.1178  -5.1178  -5.0885  -4.7326  -4.7326  -4.5929  -4.3264  -4.3263
    -4.1984  -3.9255  -3.8790  -3.8789  -3.7323  -3.5950  -3.5950  -3.2782
    -3.2782  -3.1498  -3.1341  -3.0989  -2.9540  -2.8366  -2.8366  -2.7137
    -2.6851  -2.4445  -2.4442  -2.4361  -2.4360  -2.3600  -2.3201  -2.2445
    -2.1030  -2.1030  -2.0232  -1.8355  -1.7236  -1.5145  -1.5145  -1.4365
    -1.4046  -1.4046  -1.3176  -1.1516   0.8748   0.8748   0.8943   2.0304
     2.1123   3.2313   3.6298   4.2325   4.3412   4.6721   4.6722   4.9970
     5.0778   5.0778   5.1367   5.5389   5.5389   5.8762   5.8775   5.8778
     5.9766   6.3334   6.3343   6.7800   6.9007

          k = 0.0000-0.5774 0.0000 ( 28240 PWs)   bands (ev):

   -20.3196 -20.3196 -19.9526 -19.9526 -19.8983 -19.8983 -19.7127 -19.7127
   -19.3579 -19.3579 -19.0764 -19.0763 -17.7192 -17.7190 -17.5315 -17.5314
    -8.5951  -8.5951  -8.4626  -8.4626  -8.4536  -8.4536  -8.4018  -8.4018
    -8.1961  -8.1961  -8.1869  -8.1869  -8.1180  -8.1180  -8.0771  -8.0771
    -8.0046  -8.0046  -7.9649  -7.9649  -7.9633  -7.9633  -7.9409  -7.9409
    -7.8555  -7.8555  -7.8548  -7.8548  -7.7107  -7.7107  -7.7072  -7.7072
    -7.6325  -7.6325  -7.6322  -7.6322  -7.5166  -7.5166  -7.4358  -7.4358
    -7.3886  -7.3886  -7.3750  -7.3750  -7.3438  -7.3438  -7.2237  -7.2237
    -7.1517  -7.1517  -7.1133  -7.1133  -6.9920  -6.9919  -6.7206  -6.7206
    -6.5841  -6.5841  -6.5585  -6.5584  -6.4790  -6.4790  -6.4451  -6.4451
    -6.3888  -6.3888  -6.3512  -6.3511  -6.3121  -6.3120  -6.2451  -6.2451
    -6.2073  -6.2072  -6.0821  -6.0821  -6.0782  -6.0782  -6.0202  -6.0201
    -5.8340  -5.8340  -5.7938  -5.7938  -5.2877  -5.2877  -5.0752  -5.0752
    -5.0041  -5.0041  -4.8647  -4.8647  -4.5275  -4.5274  -4.4305  -4.4305
    -4.2047  -4.2047  -4.1248  -4.1248  -3.8235  -3.8235  -3.4655  -3.4655
    -3.2026  -3.2026  -3.1973  -3.1972  -3.1742  -3.1742  -3.0934  -3.0934
    -2.7165  -2.7164  -2.5908  -2.5907  -2.2804  -2.2803  -2.1307  -2.1307
    -2.0795  -2.0795  -2.0371  -2.0371  -1.8176  -1.8176  -1.7238  -1.7238
    -1.6012  -1.6012  -1.2336  -1.2336   2.1698   2.1698   2.6797   2.6797
     3.0921   3.0921   3.4252   3.4252   3.9986   3.9986   4.8486   4.8486
     5.2273   5.2273   5.5180   5.5180   5.5826   5.5826   5.8126   5.8126
     6.1360   6.1360   6.2171   6.2172   6.8834

          k = 0.2500 0.4330 0.0000 ( 28256 PWs)   bands (ev):

   -20.3994 -20.1186 -20.1186 -20.0066 -19.8260 -19.8260 -19.7921 -19.6790
   -19.4141 -19.2194 -19.2193 -19.0157 -17.7569 -17.6265 -17.6263 -17.4914
    -8.5742  -8.5742  -8.5740  -8.4726  -8.4726  -8.4250  -8.4156  -8.2947
    -8.2116  -8.1850  -8.1850  -8.1516  -8.1034  -8.1033  -8.0946  -8.0670
    -8.0516  -8.0458  -8.0458  -7.9849  -7.9569  -7.9325  -7.9233  -7.9233
    -7.8771  -7.8440  -7.8440  -7.8166  -7.7616  -7.7082  -7.6790  -7.6790
    -7.6624  -7.6205  -7.6205  -7.6147  -7.5589  -7.5085  -7.4954  -7.4954
    -7.4259  -7.3597  -7.3472  -7.3275  -7.3275  -7.3006  -7.3006  -7.2717
    -7.1546  -7.1051  -7.1050  -6.9442  -6.9221  -6.9221  -6.8306  -6.6114
    -6.5753  -6.5752  -6.5320  -6.5141  -6.4932  -6.4441  -6.4382  -6.4382
    -6.4216  -6.3947  -6.3793  -6.3728  -6.3728  -6.2864  -6.2810  -6.2810
    -6.2110  -6.1502  -6.1451  -6.1450  -6.1023  -6.0768  -6.0220  -6.0220
    -5.9110  -5.8777  -5.8777  -5.7193  -5.5063  -5.2939  -5.1848  -5.0737
    -5.0737  -5.0029  -4.8003  -4.8003  -4.4956  -4.4431  -4.4431  -4.3131
    -4.2528  -3.9916  -3.9916  -3.7434  -3.7295  -3.7295  -3.6945  -3.5624
    -3.5392  -3.3510  -3.3510  -3.2431  -3.1491  -2.9781  -2.9781  -2.9706
    -2.6988  -2.6307  -2.6307  -2.5314  -2.4588  -2.4588  -2.2971  -2.1903
    -2.1903  -2.1401  -2.1207  -1.9445  -1.9445  -1.8841  -1.8553  -1.7227
    -1.4141  -1.4141  -1.2607   0.2917   0.3398   1.8320   2.8008   2.8483
     3.1908   3.1908   3.5499   3.5499   3.8277   4.3374   4.3374   4.9663
     4.9664   4.9754   5.6919   5.8560   5.8560   5.8752   6.1794   6.4193
     6.4200   6.4842   6.5416   6.7949   6.9492

     the Fermi energy is    -1.4615 ev

!    total energy              =   -2891.14861198 Ry
     estimated scf accuracy    <       0.00000043 Ry
     smearing contrib. (-TS)   =      -0.00341615 Ry
     internal energy E=F+TS    =   -2891.14519582 Ry

     The total energy is F=E-TS. E is the sum of the following terms:
     one-electron contribution =  -36331.53924141 Ry
     hartree contribution      =   18398.60254337 Ry
     xc contribution           =    -875.49992675 Ry
     ewald contribution        =   15917.29142898 Ry

     convergence has been achieved in  19 iterations

     negative rho (up, down):  2.430E-03 0.000E+00

     Forces acting on atoms (cartesian axes, Ry/au):

     atom    1 type  1   force =     0.00000000    0.00000206    0.00339208
     atom    2 type  1   force =     0.00000178   -0.00000103    0.00339208
     atom    3 type  1   force =     0.00000000    0.00000000    0.00339224
     atom    4 type  1   force =    -0.00000178   -0.00000103    0.00339208
     atom    5 type  2   force =     0.00000000   -0.00000058   -0.05148093
     atom    6 type  2   force =    -0.00000051    0.00000029   -0.05148093
     atom    7 type  2   force =     0.00000000   -0.00000000   -0.05146952
     atom    8 type  2   force =     0.00000051    0.00000029   -0.05148093
     atom    9 type  1   force =     0.00000277    0.00000160   -0.03146131
     atom   10 type  1   force =     0.00000000    0.00000000   -0.03146688
     atom   11 type  1   force =    -0.00000277    0.00000160   -0.03146131
     atom   12 type  1   force =     0.00000000   -0.00000320   -0.03146131
     atom   13 type  2   force =    -0.00000325   -0.00000188    0.00232162
     atom   14 type  2   force =     0.00000000    0.00000000    0.00232498
     atom   15 type  2   force =     0.00000325   -0.00000188    0.00232162
     atom   16 type  2   force =     0.00000000    0.00000375    0.00232162
     atom   17 type  1   force =     0.00000000   -0.00000182    0.00251055
     atom   18 type  1   force =    -0.00000158    0.00000091    0.00251055
     atom   19 type  1   force =     0.00000000    0.00000000    0.00251484
     atom   20 type  1   force =     0.00000158    0.00000091    0.00251055
     atom   21 type  2   force =     0.00000000   -0.00001201    0.05585452
     atom   22 type  2   force =    -0.00001040    0.00000601    0.05585452
     atom   23 type  2   force =     0.00000000    0.00000000    0.05584422
     atom   24 type  2   force =     0.00001040    0.00000601    0.05585452
     atom   25 type  1   force =     0.00000034    0.00000020   -0.03638434
     atom   26 type  1   force =     0.00000000   -0.00000000   -0.03625659
     atom   27 type  1   force =    -0.00000034    0.00000020   -0.03638434
     atom   28 type  1   force =     0.00000000   -0.00000039   -0.03638434
     atom   29 type  2   force =    -0.00000185   -0.00000107    0.05523052
     atom   30 type  2   force =     0.00000000   -0.00000000    0.05516855
     atom   31 type  2   force =     0.00000185   -0.00000107    0.05523052
     atom   32 type  2   force =     0.00000000    0.00000213    0.05523052

     Total force =     0.211213     Total SCF correction =     0.002316
     Energy error            =      7.8E-02 Ry
     Gradient error          =      5.6E-02 Ry/Bohr

     number of scf cycles    =   5
     number of bfgs steps    =   4

     energy             old  =   -2891.0703683056 Ry
     energy             new  =   -2891.1486119776 Ry

     CASE: energy            _new < energy            _old

     new trust radius        =       0.3314752401 bohr
     new conv_thr            =       0.0000005585 Ry


ATOMIC_POSITIONS (angstrom)
Zn              -0.0000020000        1.7729402498       -0.4583000403
Zn              -1.5353913913        4.4323128751       -0.4583000403
Zn               3.0707980000        1.7729280000       -0.4582913848
Zn               1.5353873913        4.4323128751       -0.4583000403
O               -0.0000020000        1.7729311025        1.5875699266
O               -1.5353993132        4.4323174488        1.5875699266
O                3.0707980000        1.7729280000        1.5875781207
O                1.5353953132        4.4323174488        1.5875699266
Zn               1.5353976119        0.8864604665        2.3863808296
Zn               0.0000020000        3.5458540000        2.3863659511
Zn               4.6062063881        0.8864604665        2.3863808296
Zn               3.0708020000        3.5458590669        2.3863808296
O                1.5353980231        0.8864607039        4.2445717047
O                0.0000020000        3.5458540000        4.2445546539
O                4.6062059769        0.8864607039        4.2445717047
O                3.0708020000        3.5458585921        4.2445717047
Zn              -0.0000020000        1.7729354914        4.9683853711
Zn              -1.5353955122        4.4323152543        4.9683853711
Zn               3.0707980000        1.7729280000        4.9683479090
Zn               1.5353915122        4.4323152543        4.9683853711
O               -0.0000020000        1.7729551999        6.8300263293
O               -1.5353784442        4.4323054001        6.8300263293
O                3.0707980000        1.7729280000        6.8299878998
O                1.5353744442        4.4323054001        6.8300263293
Zn               1.5354095026        0.8864673316        7.8378148954
Zn               0.0000020000        3.5458540000        7.8379354937
Zn               4.6061944974        0.8864673316        7.8378148954
Zn               3.0708020000        3.5458453368        7.8378148954
O                1.5353858546        0.8864536785        9.6239753033
O                0.0000020000        3.5458540000        9.6240243975
O                4.6062181454        0.8864536785        9.6239753033
O                3.0708020000        3.5458726431        9.6239753033



     Writing config-only to output data dir ./tmp/zno_slab_pure.save/ :
     XML data file
     NEW-OLD atomic charge density approx. for the potential

     Check: negative core charge=   -0.000001

     negative rho (up, down):  2.634E-03 0.000E+00

     total cpu time spent up to now is     6397.6 secs

     per-process dynamical memory:   877.7 Mb

     Self-consistent Calculation

     iteration #  1     ecut=    40.00 Ry     beta= 0.30
     Davidson diagonalization with overlap
     c_bands:  2 eigenvalues not converged
     c_bands:  1 eigenvalues not converged
     c_bands:  1 eigenvalues not converged
     ethr =  1.00E-06,  avg # of iterations = 19.5

     negative rho (up, down):  2.622E-03 0.000E+00

     total cpu time spent up to now is     6573.7 secs

     total energy              =   -2891.17895541 Ry
     estimated scf accuracy    <       2.80176523 Ry

     iteration #  2     ecut=    40.00 Ry     beta= 0.30
     Davidson diagonalization with overlap
     ethr =  9.73E-04,  avg # of iterations =  1.0

     negative rho (up, down):  2.565E-03 0.000E+00

     total cpu time spent up to now is     6603.6 secs

     total energy              =   -2891.21365587 Ry
     estimated scf accuracy    <       1.32108012 Ry

     iteration #  3     ecut=    40.00 Ry     beta= 0.30
     Davidson diagonalization with overlap
     ethr =  4.59E-04,  avg # of iterations =  1.0

     negative rho (up, down):  2.951E-03 0.000E+00

     total cpu time spent up to now is     6633.4 secs

     total energy              =   -2891.22442180 Ry
     estimated scf accuracy    <       0.06285203 Ry

     iteration #  4     ecut=    40.00 Ry     beta= 0.30
     Davidson diagonalization with overlap
     ethr =  2.18E-05,  avg # of iterations =  1.0

     negative rho (up, down):  3.935E-03 0.000E+00

     total cpu time spent up to now is     6670.0 secs

     total energy              =   -2891.22310927 Ry
     estimated scf accuracy    <       0.02330923 Ry

     iteration #  5     ecut=    40.00 Ry     beta= 0.30
     Davidson diagonalization with overlap
     c_bands:  1 eigenvalues not converged
     ethr =  8.09E-06,  avg # of iterations =  6.5

     negative rho (up, down):  3.622E-03 0.000E+00

     total cpu time spent up to now is     6704.5 secs

     total energy              =   -2891.22414872 Ry
     estimated scf accuracy    <       0.04932749 Ry

     iteration #  6     ecut=    40.00 Ry     beta= 0.30
     Davidson diagonalization with overlap
     ethr =  8.09E-06,  avg # of iterations =  1.2

     negative rho (up, down):  3.287E-03 0.000E+00

     total cpu time spent up to now is     6735.4 secs

     total energy              =   -2891.22433596 Ry
     estimated scf accuracy    <       0.02664572 Ry

     iteration #  7     ecut=    40.00 Ry     beta= 0.30
     Davidson diagonalization with overlap
     ethr =  8.09E-06,  avg # of iterations =  1.0

     negative rho (up, down):  2.707E-03 0.000E+00

     total cpu time spent up to now is     6765.8 secs

     total energy              =   -2891.22441583 Ry
     estimated scf accuracy    <       0.00656826 Ry

     iteration #  8     ecut=    40.00 Ry     beta= 0.30
     Davidson diagonalization with overlap
     c_bands:  1 eigenvalues not converged
     ethr =  2.28E-06,  avg # of iterations =  9.2

     negative rho (up, down):  2.463E-03 0.000E+00

     total cpu time spent up to now is     6802.0 secs

     total energy              =   -2891.22442431 Ry
     estimated scf accuracy    <       0.01507581 Ry

     iteration #  9     ecut=    40.00 Ry     beta= 0.30
     Davidson diagonalization with overlap
     ethr =  2.28E-06,  avg # of iterations =  1.5

     negative rho (up, down):  2.253E-03 0.000E+00

     total cpu time spent up to now is     6833.2 secs

     total energy              =   -2891.22430048 Ry
     estimated scf accuracy    <       0.01052734 Ry

     iteration # 10     ecut=    40.00 Ry     beta= 0.30
     Davidson diagonalization with overlap
     ethr =  2.28E-06,  avg # of iterations =  1.5

     negative rho (up, down):  2.143E-03 0.000E+00

     total cpu time spent up to now is     6864.6 secs

     total energy              =   -2891.22438248 Ry
     estimated scf accuracy    <       0.00010021 Ry

     iteration # 11     ecut=    40.00 Ry     beta= 0.30
     Davidson diagonalization with overlap
     c_bands:  1 eigenvalues not converged
     ethr =  3.48E-08,  avg # of iterations =  8.0

     negative rho (up, down):  2.075E-03 0.000E+00

     total cpu time spent up to now is     6903.3 secs

     total energy              =   -2891.22439589 Ry
     estimated scf accuracy    <       0.00006201 Ry

     iteration # 12     ecut=    40.00 Ry     beta= 0.30
     Davidson diagonalization with overlap
     ethr =  2.15E-08,  avg # of iterations =  1.8

     negative rho (up, down):  1.953E-03 0.000E+00

     total cpu time spent up to now is     6934.8 secs

     total energy              =   -2891.22438618 Ry
     estimated scf accuracy    <       0.00005210 Ry

     iteration # 13     ecut=    40.00 Ry     beta= 0.30
     Davidson diagonalization with overlap
     ethr =  1.81E-08,  avg # of iterations =  2.0

     negative rho (up, down):  1.965E-03 0.000E+00

     total cpu time spent up to now is     6968.4 secs

     total energy              =   -2891.22438943 Ry
     estimated scf accuracy    <       0.00001670 Ry

     iteration # 14     ecut=    40.00 Ry     beta= 0.30
     Davidson diagonalization with overlap
     ethr =  5.80E-09,  avg # of iterations =  2.0

     negative rho (up, down):  2.019E-03 0.000E+00

     total cpu time spent up to now is     7000.4 secs

     total energy              =   -2891.22438959 Ry
     estimated scf accuracy    <       0.00001167 Ry

     iteration # 15     ecut=    40.00 Ry     beta= 0.30
     Davidson diagonalization with overlap
     ethr =  4.05E-09,  avg # of iterations =  1.2

     negative rho (up, down):  2.140E-03 0.000E+00

     total cpu time spent up to now is     7030.8 secs

     total energy              =   -2891.22438981 Ry
     estimated scf accuracy    <       0.00000567 Ry

     iteration # 16     ecut=    40.00 Ry     beta= 0.30
     Davidson diagonalization with overlap
     ethr =  1.97E-09,  avg # of iterations =  4.0

     negative rho (up, down):  2.146E-03 0.000E+00

     total cpu time spent up to now is     7065.2 secs

     total energy              =   -2891.22439025 Ry
     estimated scf accuracy    <       0.00000368 Ry

     iteration # 17     ecut=    40.00 Ry     beta= 0.30
     Davidson diagonalization with overlap
     ethr =  1.28E-09,  avg # of iterations =  1.2

     negative rho (up, down):  2.250E-03 0.000E+00

     total cpu time spent up to now is     7095.1 secs

     total energy              =   -2891.22439032 Ry
     estimated scf accuracy    <       0.00000529 Ry

     iteration # 18     ecut=    40.00 Ry     beta= 0.30
     Davidson diagonalization with overlap
     ethr =  1.28E-09,  avg # of iterations =  2.0

     negative rho (up, down):  2.340E-03 0.000E+00

     total cpu time spent up to now is     7127.0 secs

     total energy              =   -2891.22439043 Ry
     estimated scf accuracy    <       0.00000219 Ry

     iteration # 19     ecut=    40.00 Ry     beta= 0.30
     Davidson diagonalization with overlap
     ethr =  7.60E-10,  avg # of iterations =  1.0

     negative rho (up, down):  2.454E-03 0.000E+00

     total cpu time spent up to now is     7156.8 secs

     total energy              =   -2891.22439044 Ry
     estimated scf accuracy    <       0.00000092 Ry

     iteration # 20     ecut=    40.00 Ry     beta= 0.30
     Davidson diagonalization with overlap
     ethr =  3.19E-10,  avg # of iterations =  2.0

     negative rho (up, down):  2.744E-03 0.000E+00

     total cpu time spent up to now is     7187.0 secs

     End of self-consistent calculation

          k = 0.0000 0.0000 0.0000 ( 28285 PWs)   bands (ev):

   -20.3327 -19.7912 -19.6065 -19.6065 -19.6065 -19.2467 -19.2467 -19.2467
   -19.2416 -18.6747 -18.6746 -18.6746 -17.8264 -17.4544 -17.4542 -17.4542
    -8.4573  -8.3625  -8.3625  -8.3625  -8.2929  -8.2929  -8.2929  -8.2517
    -8.2517  -8.2517  -8.2367  -8.1696  -8.0210  -8.0210  -8.0210  -7.9971
    -7.9971  -7.8287  -7.8287  -7.8287  -7.8130  -7.7985  -7.7985  -7.6950
    -7.6950  -7.6950  -7.6557  -7.6557  -7.6557  -7.5542  -7.5541  -7.4372
    -7.4372  -7.4372  -7.3474  -7.3474  -7.3474  -7.3300  -7.3300  -7.2570
    -7.2570  -7.2570  -7.1894  -7.1894  -7.1894  -6.9767  -6.9767  -6.9357
    -6.9357  -6.9357  -6.7479  -6.7479  -6.7479  -6.5257  -6.5256  -6.5256
    -6.3563  -6.3563  -6.3259  -6.3259  -6.3259  -6.2709  -6.2709  -6.2260
    -6.2251  -6.2251  -6.2251  -6.1297  -6.1297  -6.1297  -6.1150  -6.1150
    -6.1150  -6.1110  -6.1110  -6.1110  -6.0176  -6.0176  -5.8892  -5.8892
    -5.8892  -5.8552  -5.8552  -5.8552  -5.7259  -5.4359  -5.4359  -5.4359
    -4.9294  -4.9294  -4.9293  -4.5850  -4.5850  -4.5850  -4.3182  -3.8635
    -3.8635  -3.8635  -3.7065  -3.7065  -3.7065  -3.3532  -3.3531  -3.3531
    -3.0793  -2.9846  -2.9846  -2.9846  -2.5610  -2.5610  -2.5610  -2.4012
    -2.4012  -2.4012  -2.3785  -2.3784  -2.2150  -2.2149  -2.2148  -2.0611
    -2.0611  -1.9062  -1.6539  -1.6538  -1.3514  -1.3514  -1.3514  -1.1137
    -1.1137  -0.8184  -0.8184  -0.8184  -0.4266  -0.4265  -0.4265   0.1843
     1.5460   2.7132   3.7415   4.5007   4.5008   4.5008   4.5295   4.5295
     4.5296   4.7511   5.2434   5.2435   5.2435   5.6309   5.8299   5.8300
     5.8301   6.3563   6.5022   6.7584   6.7586

          k = 0.0000 0.2887 0.0000 ( 28254 PWs)   bands (ev):

   -20.2347 -19.7227 -19.7136 -19.6101 -19.6100 -19.3278 -19.2481 -19.2481
   -19.1641 -18.7639 -18.6763 -18.6763 -17.7743 -17.5113 -17.4547 -17.4546
    -8.3936  -8.3554  -8.2984  -8.2984  -8.2482  -8.2183  -8.2063  -8.2063
    -8.1858  -8.1858  -8.1771  -8.0556  -8.0068  -7.9958  -7.9958  -7.9606
    -7.9497  -7.8568  -7.8554  -7.8554  -7.8215  -7.7978  -7.7360  -7.7360
    -7.7299  -7.7298  -7.7079  -7.6680  -7.6680  -7.5902  -7.5105  -7.4673
    -7.4673  -7.4606  -7.3610  -7.3521  -7.3253  -7.3253  -7.3059  -7.2681
    -7.2111  -7.2111  -7.1753  -7.1753  -7.1150  -7.0186  -6.9661  -6.9410
    -6.9015  -6.9015  -6.7989  -6.7652  -6.7651  -6.6252  -6.5483  -6.5482
    -6.4995  -6.4566  -6.4566  -6.4009  -6.3547  -6.3547  -6.3531  -6.3448
    -6.3037  -6.2697  -6.2114  -6.1953  -6.1623  -6.1542  -6.1542  -6.1379
    -6.1379  -6.0369  -6.0187  -6.0177  -5.9526  -5.9526  -5.9429  -5.8660
    -5.8660  -5.6853  -5.6853  -5.6698  -5.5405  -5.3721  -5.3721  -5.3172
    -4.9491  -4.9352  -4.9352  -4.5636  -4.5636  -4.5153  -4.2629  -4.0839
    -4.0839  -3.8650  -3.7838  -3.7838  -3.4854  -3.3903  -3.3902  -3.2155
    -3.2155  -3.1554  -3.1406  -2.8763  -2.8365  -2.6939  -2.6939  -2.5582
    -2.5553  -2.4516  -2.4170  -2.4170  -2.2831  -2.2813  -2.1875  -2.1818
    -2.1817  -2.1800  -2.1122  -1.8634  -1.7555  -1.5170  -1.5170  -1.4334
    -1.3924  -1.3924  -1.3161  -1.1471   0.8809   0.8848   0.8848   2.0244
     2.0491   3.0656   3.5736   4.1644   4.1951   4.5769   4.5770   4.7797
     4.9179   4.9179   5.0590   5.3434   5.3434   5.6012   5.6526   5.6526
     5.9184   6.2494   6.2494   6.7167   6.8084

          k = 0.0000-0.5774 0.0000 ( 28240 PWs)   bands (ev):

   -19.9876 -19.9875 -19.6136 -19.6136 -19.5226 -19.5226 -19.2495 -19.2495
   -18.9699 -18.9698 -18.6780 -18.6780 -17.6453 -17.6451 -17.4551 -17.4550
    -8.3161  -8.3161  -8.1981  -8.1981  -8.1777  -8.1777  -8.1569  -8.1569
    -8.1304  -8.1304  -8.0722  -8.0722  -7.9793  -7.9793  -7.9556  -7.9556
    -7.8558  -7.8558  -7.8337  -7.8337  -7.8322  -7.8322  -7.8148  -7.8148
    -7.8036  -7.8036  -7.6848  -7.6848  -7.5301  -7.5301  -7.5248  -7.5247
    -7.4198  -7.4198  -7.4163  -7.4163  -7.3010  -7.3010  -7.1918  -7.1918
    -7.1747  -7.1747  -7.1129  -7.1129  -7.1077  -7.1077  -6.9972  -6.9971
    -6.8711  -6.8711  -6.8573  -6.8573  -6.7918  -6.7918  -6.5709  -6.5709
    -6.5242  -6.5242  -6.4989  -6.4988  -6.4238  -6.4238  -6.3428  -6.3428
    -6.3065  -6.3064  -6.2391  -6.2391  -6.2389  -6.2389  -6.1587  -6.1586
    -6.1321  -6.1321  -6.0286  -6.0286  -6.0036  -6.0036  -5.9328  -5.9328
    -5.7651  -5.7651  -5.6325  -5.6325  -5.1404  -5.1404  -5.0793  -5.0792
    -4.8033  -4.8033  -4.7176  -4.7176  -4.3884  -4.3884  -4.3040  -4.3040
    -4.1181  -4.1181  -3.9154  -3.9154  -3.6951  -3.6951  -3.3994  -3.3994
    -3.1703  -3.1702  -3.0922  -3.0922  -3.0041  -3.0041  -2.9980  -2.9980
    -2.5371  -2.5371  -2.5019  -2.5019  -2.2790  -2.2790  -2.1484  -2.1483
    -2.0761  -2.0760  -2.0116  -2.0116  -1.8982  -1.8981  -1.7314  -1.7314
    -1.5784  -1.5784  -1.2310  -1.2309   2.1468   2.1468   2.6907   2.6907
     2.9884   2.9884   3.4921   3.4921   3.7595   3.7595   4.7329   4.7330
     5.1042   5.1042   5.1587   5.1587   5.5241   5.5241   5.6297   5.6297
     5.8841   5.8841   6.1836   6.1837   6.8444

          k = 0.2500 0.4330 0.0000 ( 28256 PWs)   bands (ev):

   -20.0618 -19.8039 -19.8039 -19.5791 -19.5325 -19.3859 -19.3859 -19.1934
   -19.0280 -18.8263 -18.8263 -18.6150 -17.6835 -17.5513 -17.5511 -17.4146
    -8.3197  -8.2796  -8.2796  -8.1986  -8.1986  -8.1741  -8.1433  -8.1246
    -8.1246  -8.0990  -8.0717  -8.0488  -7.9711  -7.9711  -7.9670  -7.9596
    -7.9122  -7.8509  -7.8485  -7.8483  -7.8483  -7.8464  -7.8129  -7.8128
    -7.7956  -7.7610  -7.7610  -7.6168  -7.5436  -7.5269  -7.4922  -7.4870
    -7.4870  -7.4242  -7.4242  -7.3957  -7.3115  -7.2923  -7.2653  -7.2653
    -7.1507  -7.1406  -7.1366  -7.0705  -7.0705  -7.0381  -7.0381  -7.0182
    -6.9106  -6.8834  -6.8834  -6.7343  -6.7343  -6.7199  -6.6176  -6.5253
    -6.5124  -6.5123  -6.4522  -6.4161  -6.4109  -6.3795  -6.3794  -6.3608
    -6.3224  -6.2713  -6.2713  -6.2628  -6.2588  -6.1869  -6.1869  -6.1722
    -6.1459  -6.0611  -6.0611  -6.0413  -6.0036  -5.9865  -5.9616  -5.9616
    -5.8443  -5.7829  -5.7829  -5.6316  -5.4117  -5.2112  -5.0539  -4.9422
    -4.9422  -4.7765  -4.7059  -4.7059  -4.3880  -4.3880  -4.2669  -4.2522
    -4.0736  -3.9133  -3.9132  -3.6130  -3.5955  -3.5125  -3.5125  -3.4911
    -3.4594  -3.2051  -3.2051  -3.1601  -3.0441  -2.9061  -2.9061  -2.8359
    -2.5269  -2.5269  -2.5056  -2.4809  -2.3603  -2.3603  -2.2951  -2.1951
    -2.1951  -2.1885  -2.0446  -2.0178  -2.0178  -1.9474  -1.8931  -1.7392
    -1.4152  -1.4152  -1.2583   0.3177   0.3386   1.8126   2.7405   2.8446
     3.1857   3.1857   3.4913   3.4913   3.6036   4.0912   4.0913   4.8179
     4.8180   4.8894   5.5541   5.5939   5.5939   5.6442   5.8256   6.3309
     6.4527   6.4553   6.4559   6.6080   6.9412

     the Fermi energy is    -1.4565 ev

!    total energy              =   -2891.22438990 Ry
     estimated scf accuracy    <       0.00000047 Ry
     smearing contrib. (-TS)   =      -0.00435927 Ry
     internal energy E=F+TS    =   -2891.22003062 Ry

     The total energy is F=E-TS. E is the sum of the following terms:
     one-electron contribution =  -34931.92333579 Ry
     hartree contribution      =   17699.92856844 Ry
     xc contribution           =    -874.80817250 Ry
     ewald contribution        =   15215.58290923 Ry

     convergence has been achieved in  20 iterations

     negative rho (up, down):  2.744E-03 0.000E+00

     Forces acting on atoms (cartesian axes, Ry/au):

     atom    1 type  1   force =     0.00000000    0.00000148    0.02104353
     atom    2 type  1   force =     0.00000128   -0.00000074    0.02104353
     atom    3 type  1   force =     0.00000000    0.00000000    0.02104473
     atom    4 type  1   force =    -0.00000128   -0.00000074    0.02104353
     atom    5 type  2   force =     0.00000000   -0.00000150   -0.04098522
     atom    6 type  2   force =    -0.00000130    0.00000075   -0.04098522
     atom    7 type  2   force =     0.00000000    0.00000000   -0.04098239
     atom    8 type  2   force =     0.00000130    0.00000075   -0.04098522
     atom    9 type  1   force =     0.00000165    0.00000096   -0.03741062
     atom   10 type  1   force =     0.00000000   -0.00000000   -0.03741041
     atom   11 type  1   force =    -0.00000165    0.00000096   -0.03741062
     atom   12 type  1   force =     0.00000000   -0.00000191   -0.03741062
     atom   13 type  2   force =    -0.00000314   -0.00000181   -0.00054990
     atom   14 type  2   force =     0.00000000    0.00000000   -0.00054942
     atom   15 type  2   force =     0.00000314   -0.00000181   -0.00054990
     atom   16 type  2   force =     0.00000000    0.00000363   -0.00054990
     atom   17 type  1   force =     0.00000000   -0.00000235    0.01324824
     atom   18 type  1   force =    -0.00000204    0.00000118    0.01324824
     atom   19 type  1   force =     0.00000000   -0.00000000    0.01325066
     atom   20 type  1   force =     0.00000204    0.00000118    0.01324824
     atom   21 type  2   force =     0.00000000   -0.00000244    0.06231345
     atom   22 type  2   force =    -0.00000211    0.00000122    0.06231345
     atom   23 type  2   force =     0.00000000   -0.00000000    0.06233102
     atom   24 type  2   force =     0.00000211    0.00000122    0.06231345
     atom   25 type  1   force =    -0.00000311   -0.00000179   -0.04462179
     atom   26 type  1   force =     0.00000000    0.00000000   -0.04473981
     atom   27 type  1   force =     0.00000311   -0.00000179   -0.04462179
     atom   28 type  1   force =     0.00000000    0.00000359   -0.04462179
     atom   29 type  2   force =    -0.00000282   -0.00000163    0.02699018
     atom   30 type  2   force =     0.00000000    0.00000000    0.02697199
     atom   31 type  2   force =     0.00000282   -0.00000163    0.02699018
     atom   32 type  2   force =    -0.00000000    0.00000326    0.02699018

     Total force =     0.203012     Total SCF correction =     0.002739
     Energy error            =      7.6E-02 Ry
     Gradient error          =      6.2E-02 Ry/Bohr

     number of scf cycles    =   6
     number of bfgs steps    =   5

     energy             old  =   -2891.1486119776 Ry
     energy             new  =   -2891.2243898964 Ry

     CASE: energy            _new < energy            _old

     new trust radius        =       0.1960795473 bohr
     new conv_thr            =       0.0000006233 Ry


ATOMIC_POSITIONS (angstrom)
Zn              -0.0000020000        1.7729446863       -0.5520996358
Zn              -1.5353875493        4.4323106569       -0.5520996358
Zn               3.0707980000        1.7729280000       -0.5520870389
Zn               1.5353835493        4.4323106569       -0.5520996358
O               -0.0000020000        1.7729305247        1.4939680294
O               -1.5353998136        4.4323177377        1.4939680294
O                3.0707980000        1.7729280000        1.4939783910
O                1.5353958136        4.4323177377        1.4939680294
Zn               1.5353986632        0.8864610735        2.3385638729
Zn               0.0000020000        3.5458540000        2.3385442413
Zn               4.6062053368        0.8864610735        2.3385638729
Zn               3.0708020000        3.5458578531        2.3385638729
O                1.5353963665        0.8864597475        4.2219518414
O                0.0000020000        3.5458540000        4.2219298829
O                4.6062076335        0.8864597475        4.2219518414
O                3.0708020000        3.5458605050        4.2219518414
Zn              -0.0000020000        1.7729361861        4.9939935685
Zn              -1.5353949107        4.4323149070        4.9939935685
Zn               3.0707980000        1.7729280000        4.9939459376
Zn               1.5353909107        4.4323149070        4.9939935685
O               -0.0000020000        1.7729605344        6.8854428182
O               -1.5353738243        4.4323027328        6.8854428182
O                3.0707980000        1.7729280000        6.8854120836
O                1.5353698243        4.4323027328        6.8854428182
Zn               1.5354123490        0.8864689750        7.9108865081
Zn               0.0000020000        3.5458540000        7.9109626014
Zn               4.6061916510        0.8864689750        7.9108865081
Zn               3.0708020000        3.5458420500        7.9108865081
O                1.5353795172        0.8864500196        9.7277361310
O                0.0000020000        3.5458540000        9.7277605000
O                4.6062244828        0.8864500196        9.7277361310
O                3.0708020000        3.5458799608        9.7277361310



     Writing config-only to output data dir ./tmp/zno_slab_pure.save/ :
     XML data file
     NEW-OLD atomic charge density approx. for the potential

     Check: negative core charge=   -0.000001

     negative rho (up, down):  2.645E-03 0.000E+00

     total cpu time spent up to now is     7196.7 secs

     per-process dynamical memory:   877.7 Mb

     Self-consistent Calculation

     iteration #  1     ecut=    40.00 Ry     beta= 0.30
     Davidson diagonalization with overlap
     c_bands:  1 eigenvalues not converged
     ethr =  1.00E-06,  avg # of iterations = 16.2

     negative rho (up, down):  2.808E-03 0.000E+00

     total cpu time spent up to now is     7347.7 secs

     total energy              =   -2891.23076967 Ry
     estimated scf accuracy    <       1.56389787 Ry

     iteration #  2     ecut=    40.00 Ry     beta= 0.30
     Davidson diagonalization with overlap
     ethr =  5.43E-04,  avg # of iterations =  1.0

     negative rho (up, down):  2.842E-03 0.000E+00

     total cpu time spent up to now is     7377.7 secs

     total energy              =   -2891.25326429 Ry
     estimated scf accuracy    <       1.38463333 Ry

     iteration #  3     ecut=    40.00 Ry     beta= 0.30
     Davidson diagonalization with overlap
     ethr =  4.81E-04,  avg # of iterations =  1.0

     negative rho (up, down):  2.820E-03 0.000E+00

     total cpu time spent up to now is     7407.8 secs

     total energy              =   -2891.26424181 Ry
     estimated scf accuracy    <       0.01694931 Ry

     iteration #  4     ecut=    40.00 Ry     beta= 0.30
     Davidson diagonalization with overlap
     ethr =  5.89E-06,  avg # of iterations =  1.0

     negative rho (up, down):  3.540E-03 0.000E+00

     total cpu time spent up to now is     7437.9 secs

     total energy              =   -2891.26241407 Ry
     estimated scf accuracy    <       0.00897996 Ry

     iteration #  5     ecut=    40.00 Ry     beta= 0.30
     Davidson diagonalization with overlap
     ethr =  3.12E-06,  avg # of iterations =  2.0

     negative rho (up, down):  3.780E-03 0.000E+00

     total cpu time spent up to now is     7469.9 secs

     total energy              =   -2891.26231387 Ry
     estimated scf accuracy    <       0.01991602 Ry

     iteration #  6     ecut=    40.00 Ry     beta= 0.30
     Davidson diagonalization with overlap
     ethr =  3.12E-06,  avg # of iterations =  1.2

     negative rho (up, down):  3.619E-03 0.000E+00

     total cpu time spent up to now is     7500.4 secs

     total energy              =   -2891.26271617 Ry
     estimated scf accuracy    <       0.00511830 Ry

     iteration #  7     ecut=    40.00 Ry     beta= 0.30
     Davidson diagonalization with overlap
     ethr =  1.78E-06,  avg # of iterations =  2.0

     negative rho (up, down):  3.260E-03 0.000E+00

     total cpu time spent up to now is     7532.0 secs

     total energy              =   -2891.26280956 Ry
     estimated scf accuracy    <       0.00024929 Ry

     iteration #  8     ecut=    40.00 Ry     beta= 0.30
     Davidson diagonalization with overlap
     ethr =  8.66E-08,  avg # of iterations =  4.2

     negative rho (up, down):  3.197E-03 0.000E+00

     total cpu time spent up to now is     7573.2 secs

     total energy              =   -2891.26289497 Ry
     estimated scf accuracy    <       0.00008714 Ry

     iteration #  9     ecut=    40.00 Ry     beta= 0.30
     Davidson diagonalization with overlap
     ethr =  3.03E-08,  avg # of iterations =  1.5

     negative rho (up, down):  3.151E-03 0.000E+00

     total cpu time spent up to now is     7605.0 secs

     total energy              =   -2891.26288338 Ry
     estimated scf accuracy    <       0.00021256 Ry

     iteration # 10     ecut=    40.00 Ry     beta= 0.30
     Davidson diagonalization with overlap
     ethr =  3.03E-08,  avg # of iterations =  2.0

     negative rho (up, down):  3.118E-03 0.000E+00

     total cpu time spent up to now is     7637.2 secs

     total energy              =   -2891.26288690 Ry
     estimated scf accuracy    <       0.00003040 Ry

     iteration # 11     ecut=    40.00 Ry     beta= 0.30
     Davidson diagonalization with overlap
     ethr =  1.06E-08,  avg # of iterations =  1.0

     negative rho (up, down):  3.078E-03 0.000E+00

     total cpu time spent up to now is     7667.0 secs

     total energy              =   -2891.26288567 Ry
     estimated scf accuracy    <       0.00001595 Ry

     iteration # 12     ecut=    40.00 Ry     beta= 0.30
     Davidson diagonalization with overlap
     ethr =  5.54E-09,  avg # of iterations =  1.5

     negative rho (up, down):  3.056E-03 0.000E+00

     total cpu time spent up to now is     7697.4 secs

     total energy              =   -2891.26288558 Ry
     estimated scf accuracy    <       0.00000664 Ry

     iteration # 13     ecut=    40.00 Ry     beta= 0.30
     Davidson diagonalization with overlap
     ethr =  2.30E-09,  avg # of iterations =  2.0

     negative rho (up, down):  3.016E-03 0.000E+00

     total cpu time spent up to now is     7728.8 secs

     total energy              =   -2891.26288532 Ry
     estimated scf accuracy    <       0.00000399 Ry

     iteration # 14     ecut=    40.00 Ry     beta= 0.30
     Davidson diagonalization with overlap
     ethr =  1.38E-09,  avg # of iterations =  2.0

     negative rho (up, down):  2.988E-03 0.000E+00

     total cpu time spent up to now is     7760.6 secs

     total energy              =   -2891.26288537 Ry
     estimated scf accuracy    <       0.00000118 Ry

     iteration # 15     ecut=    40.00 Ry     beta= 0.30
     Davidson diagonalization with overlap
     ethr =  4.09E-10,  avg # of iterations =  2.0

     negative rho (up, down):  2.779E-03 0.000E+00

     total cpu time spent up to now is     7790.9 secs

     End of self-consistent calculation

          k = 0.0000 0.0000 0.0000 ( 28285 PWs)   bands (ev):

   -20.1168 -19.6341 -19.4031 -19.4031 -19.4030 -19.0958 -19.0868 -19.0868
   -19.0868 -18.5227 -18.5227 -18.5227 -17.7251 -17.3488 -17.3486 -17.3486
    -8.3975  -8.2730  -8.2730  -8.2730  -8.2328  -8.2328  -8.2328  -8.1475
    -8.1361  -8.1361  -8.1361  -8.1062  -7.9830  -7.9830  -7.9654  -7.9654
    -7.9654  -7.7989  -7.7989  -7.7989  -7.7538  -7.7538  -7.6919  -7.6420
    -7.6420  -7.6420  -7.5861  -7.5861  -7.5861  -7.4022  -7.4021  -7.3471
    -7.3471  -7.3471  -7.2295  -7.2295  -7.2295  -7.2184  -7.2184  -7.1751
    -7.1751  -7.1750  -7.0561  -7.0560  -7.0560  -6.8726  -6.8726  -6.8401
    -6.8401  -6.8401  -6.6489  -6.6488  -6.6488  -6.4392  -6.4391  -6.4391
    -6.3012  -6.3012  -6.3012  -6.2777  -6.2777  -6.2559  -6.2559  -6.1674
    -6.1190  -6.1190  -6.1190  -6.1109  -6.1109  -6.1109  -6.0755  -6.0755
    -6.0754  -6.0612  -6.0612  -6.0611  -5.9989  -5.9989  -5.8670  -5.8670
    -5.8670  -5.8431  -5.8431  -5.8431  -5.7426  -5.4017  -5.4017  -5.4017
    -4.8742  -4.8742  -4.8742  -4.5344  -4.5344  -4.5344  -4.3834  -3.8706
    -3.8706  -3.8706  -3.5607  -3.5607  -3.5607  -3.4007  -3.4007  -3.4006
    -3.1414  -2.8850  -2.8849  -2.8849  -2.5622  -2.5622  -2.5622  -2.3426
    -2.3426  -2.3426  -2.3206  -2.3205  -2.2223  -2.2223  -2.2223  -2.0053
    -2.0053  -1.9944  -1.6485  -1.6484  -1.3372  -1.3372  -1.3372  -1.0909
    -1.0909  -0.8008  -0.8008  -0.8008  -0.4128  -0.4128  -0.4128   0.1121
     1.4761   2.6494   3.7023   4.3723   4.3724   4.3724   4.3909   4.3910
     4.3910   4.7240   5.1371   5.1371   5.1372   5.6126   5.6661   5.6661
     5.6662   6.2744   6.5080   6.6462   6.6462

          k = 0.0000 0.2887 0.0000 ( 28254 PWs)   bands (ev):

   -20.0203 -19.5565 -19.5170 -19.4065 -19.4064 -19.1689 -19.0882 -19.0882
   -19.0175 -18.6129 -18.5244 -18.5244 -17.6724 -17.4063 -17.3491 -17.3490
    -8.3369  -8.2515  -8.2134  -8.2134  -8.1962  -8.1673  -8.1673  -8.1290
    -8.0912  -8.0912  -8.0667  -8.0242  -7.9392  -7.9355  -7.9153  -7.9152
    -7.9103  -7.8194  -7.8194  -7.7940  -7.7909  -7.7580  -7.7183  -7.7183
    -7.6942  -7.6202  -7.6175  -7.5565  -7.5565  -7.4509  -7.3724  -7.3629
    -7.3629  -7.3616  -7.2405  -7.2374  -7.2236  -7.2236  -7.1856  -7.1560
    -7.1076  -7.1076  -7.0482  -7.0482  -7.0042  -6.9134  -6.8693  -6.8350
    -6.8094  -6.8093  -6.6909  -6.6690  -6.6690  -6.5675  -6.4801  -6.4800
    -6.4176  -6.3951  -6.3950  -6.3224  -6.2877  -6.2806  -6.2785  -6.2784
    -6.2760  -6.2556  -6.1571  -6.1498  -6.1498  -6.1495  -6.1244  -6.0867
    -6.0866  -6.0201  -6.0091  -5.9996  -5.9208  -5.9113  -5.9113  -5.8449
    -5.8449  -5.6506  -5.6506  -5.6175  -5.5664  -5.3283  -5.3282  -5.2808
    -4.9144  -4.8803  -4.8803  -4.5312  -4.5300  -4.5299  -4.3228  -3.9731
    -3.9731  -3.8597  -3.7640  -3.7640  -3.3659  -3.3659  -3.3569  -3.1917
    -3.1856  -3.1721  -3.1720  -2.8342  -2.7448  -2.6544  -2.6544  -2.5048
    -2.4897  -2.4439  -2.4033  -2.4033  -2.2567  -2.2323  -2.1890  -2.1890
    -2.1734  -2.1350  -2.1263  -1.9486  -1.7420  -1.5041  -1.5041  -1.4126
    -1.3709  -1.3709  -1.3008  -1.1259   0.8137   0.9009   0.9009   1.9530
     2.0588   2.9908   3.4785   4.0277   4.1359   4.4471   4.4472   4.6992
     4.7762   4.7762   5.0086   5.2208   5.2208   5.4161   5.5593   5.5593
     5.8979   6.2225   6.2233   6.6687   6.7358

          k = 0.0000-0.5774 0.0000 ( 28240 PWs)   bands (ev):

   -19.7771 -19.7771 -19.4098 -19.4098 -19.3651 -19.3651 -19.0896 -19.0896
   -18.8211 -18.8211 -18.5261 -18.5261 -17.5419 -17.5418 -17.3495 -17.3494
    -8.2426  -8.2426  -8.1288  -8.1288  -8.1094  -8.1094  -8.0849  -8.0849
    -8.0690  -8.0690  -8.0519  -8.0519  -7.9114  -7.9114  -7.8637  -7.8637
    -7.8271  -7.8271  -7.8182  -7.8182  -7.7717  -7.7717  -7.7647  -7.7647
    -7.7022  -7.7022  -7.5414  -7.5414  -7.4405  -7.4405  -7.4232  -7.4232
    -7.2948  -7.2948  -7.2823  -7.2822  -7.2012  -7.2012  -7.0953  -7.0953
    -7.0542  -7.0542  -7.0007  -7.0007  -6.9998  -6.9998  -6.8995  -6.8995
    -6.7624  -6.7624  -6.7607  -6.7607  -6.7133  -6.7132  -6.4889  -6.4889
    -6.4451  -6.4451  -6.4176  -6.4175  -6.3651  -6.3651  -6.3172  -6.3172
    -6.2354  -6.2353  -6.2257  -6.2257  -6.2239  -6.2239  -6.1099  -6.1099
    -6.1089  -6.1088  -6.0135  -6.0135  -5.9848  -5.9848  -5.8856  -5.8856
    -5.7654  -5.7654  -5.5565  -5.5565  -5.1089  -5.1089  -5.1029  -5.1028
    -4.7405  -4.7405  -4.6693  -4.6693  -4.4117  -4.4116  -4.2123  -4.2123
    -4.0831  -4.0831  -3.8775  -3.8774  -3.6454  -3.6454  -3.4095  -3.4095
    -3.1575  -3.1575  -3.1038  -3.1038  -2.9542  -2.9542  -2.9081  -2.9081
    -2.5332  -2.5332  -2.4267  -2.4267  -2.2694  -2.2694  -2.1555  -2.1555
    -2.0818  -2.0818  -1.9793  -1.9793  -1.9295  -1.9295  -1.7211  -1.7210
    -1.5518  -1.5518  -1.2130  -1.2129   2.0727   2.0727   2.7010   2.7010
     2.9050   2.9050   3.5253   3.5253   3.6559   3.6559   4.6007   4.6007
     4.9397   4.9397   4.9982   4.9982   5.4714   5.4714   5.5135   5.5135
     5.7605   5.7605   6.1841   6.1841   6.8386

          k = 0.2500 0.4330 0.0000 ( 28256 PWs)   bands (ev):

   -19.8501 -19.5967 -19.5966 -19.4218 -19.3303 -19.2275 -19.2275 -19.0327
   -18.8799 -18.6760 -18.6760 -18.4625 -17.5806 -17.4468 -17.4467 -17.3085
    -8.2569  -8.1913  -8.1913  -8.1162  -8.1162  -8.1071  -8.0938  -8.0938
    -8.0605  -8.0483  -8.0318  -8.0255  -7.9265  -7.9146  -7.8860  -7.8860
    -7.8373  -7.8345  -7.8080  -7.8080  -7.7843  -7.7843  -7.7716  -7.7415
    -7.7181  -7.6421  -7.6421  -7.5015  -7.4605  -7.4116  -7.3872  -7.3871
    -7.3607  -7.3150  -7.3150  -7.2627  -7.2025  -7.1944  -7.1394  -7.1394
    -7.0457  -7.0392  -7.0034  -6.9609  -6.9609  -6.9386  -6.9386  -6.9137
    -6.8009  -6.7811  -6.7811  -6.6580  -6.6580  -6.6408  -6.5489  -6.4403
    -6.4292  -6.4292  -6.3769  -6.3722  -6.3340  -6.3243  -6.3242  -6.3120
    -6.2873  -6.2500  -6.2500  -6.2388  -6.2012  -6.1457  -6.1456  -6.1258
    -6.1155  -6.0308  -6.0261  -6.0261  -5.9831  -5.9574  -5.9574  -5.8874
    -5.7954  -5.7438  -5.7438  -5.6382  -5.3816  -5.2434  -4.9363  -4.9173
    -4.9173  -4.7109  -4.6986  -4.6986  -4.3845  -4.3844  -4.3071  -4.1847
    -3.9978  -3.8980  -3.8980  -3.5901  -3.5664  -3.4999  -3.4394  -3.4084
    -3.4083  -3.1915  -3.1915  -3.1349  -3.0074  -2.8580  -2.8580  -2.7732
    -2.4934  -2.4934  -2.4783  -2.4331  -2.3346  -2.3346  -2.2893  -2.1874
    -2.1833  -2.1833  -2.0398  -2.0398  -2.0255  -1.9950  -1.8863  -1.7309
    -1.3997  -1.3997  -1.2392   0.3375   0.3613   1.7420   2.6580   2.8712
     3.1066   3.1067   3.4549   3.4549   3.5057   3.9517   3.9517   4.7681
     4.7681   4.7710   5.3821   5.3821   5.4497   5.4819   5.6786   6.1834
     6.4488   6.4499   6.4773   6.4774   6.9597

     the Fermi energy is    -1.4386 ev

!    total energy              =   -2891.26288532 Ry
     estimated scf accuracy    <       0.00000052 Ry
     smearing contrib. (-TS)   =      -0.00458992 Ry
     internal energy E=F+TS    =   -2891.25829541 Ry

     The total energy is F=E-TS. E is the sum of the following terms:
     one-electron contribution =  -34115.97224561 Ry
     hartree contribution      =   17292.25934741 Ry
     xc contribution           =    -874.42803795 Ry
     ewald contribution        =   14806.88264075 Ry

     convergence has been achieved in  15 iterations

     negative rho (up, down):  2.779E-03 0.000E+00

     Forces acting on atoms (cartesian axes, Ry/au):

     atom    1 type  1   force =    -0.00000000   -0.00000056    0.02570172
     atom    2 type  1   force =    -0.00000049    0.00000028    0.02570172
     atom    3 type  1   force =     0.00000000    0.00000000    0.02569537
     atom    4 type  1   force =     0.00000049    0.00000028    0.02570172
     atom    5 type  2   force =     0.00000000   -0.00000269   -0.02880901
     atom    6 type  2   force =    -0.00000233    0.00000134   -0.02880901
     atom    7 type  2   force =     0.00000000    0.00000000   -0.02880828
     atom    8 type  2   force =     0.00000233    0.00000134   -0.02880901
     atom    9 type  1   force =     0.00000010    0.00000006   -0.03058797
     atom   10 type  1   force =     0.00000000    0.00000000   -0.03057747
     atom   11 type  1   force =    -0.00000010    0.00000006   -0.03058797
     atom   12 type  1   force =     0.00000000   -0.00000012   -0.03058797
     atom   13 type  2   force =    -0.00000358   -0.00000207   -0.00428744
     atom   14 type  2   force =     0.00000000    0.00000000   -0.00428332
     atom   15 type  2   force =     0.00000358   -0.00000207   -0.00428744
     atom   16 type  2   force =     0.00000000    0.00000413   -0.00428744
     atom   17 type  1   force =     0.00000000    0.00000319    0.01726547
     atom   18 type  1   force =     0.00000276   -0.00000160    0.01726547
     atom   19 type  1   force =     0.00000000   -0.00000000    0.01727659
     atom   20 type  1   force =    -0.00000276   -0.00000160    0.01726547
     atom   21 type  2   force =     0.00000000   -0.00001171    0.04895945
     atom   22 type  2   force =    -0.00001014    0.00000585    0.04895945
     atom   23 type  2   force =     0.00000000   -0.00000000    0.04895548
     atom   24 type  2   force =     0.00001014    0.00000585    0.04895945
     atom   25 type  1   force =    -0.00000253   -0.00000146   -0.03331345
     atom   26 type  1   force =     0.00000000   -0.00000000   -0.03345271
     atom   27 type  1   force =     0.00000253   -0.00000146   -0.03331345
     atom   28 type  1   force =     0.00000000    0.00000292   -0.03331345
     atom   29 type  2   force =    -0.00000258   -0.00000149    0.00507975
     atom   30 type  2   force =     0.00000000    0.00000000    0.00516881
     atom   31 type  2   force =     0.00000258   -0.00000149    0.00507975
     atom   32 type  2   force =     0.00000000    0.00000297    0.00507975

     Total force =     0.158462     Total SCF correction =     0.005228
     Energy error            =      3.8E-02 Ry
     Gradient error          =      4.9E-02 Ry/Bohr

     number of scf cycles    =   7
     number of bfgs steps    =   6

     energy             old  =   -2891.2243898964 Ry
     energy             new  =   -2891.2628853235 Ry

     CASE: energy            _new < energy            _old

     new trust radius        =       0.1382683133 bohr
     new conv_thr            =       0.0000004896 Ry


ATOMIC_POSITIONS (angstrom)
Zn              -0.0000020000        1.7729468682       -0.5924267915
Zn              -1.5353856597        4.4323095659       -0.5924267915
Zn               3.0707980000        1.7729280000       -0.5924177061
Zn               1.5353816597        4.4323095659       -0.5924267915
O               -0.0000020000        1.7729277031        1.4207998513
O               -1.5354022571        4.4323191484        1.4207998513
O                3.0707980000        1.7729280000        1.4208099506
O                1.5353982571        4.4323191484        1.4207998513
Zn               1.5353991651        0.8864613633        2.2871501387
Zn               0.0000020000        3.5458540000        2.2871373026
Zn               4.6062048349        0.8864613633        2.2871501387
Zn               3.0708020000        3.5458572735        2.2871501387
O                1.5353936832        0.8864581983        4.2021939954
O                0.0000020000        3.5458540000        4.2021717458
O                4.6062103168        0.8864581983        4.2021939954
O                3.0708020000        3.5458636034        4.2021939954
Zn              -0.0000020000        1.7729407308        5.0274714324
Zn              -1.5353909748        4.4323126346        5.0274714324
Zn               3.0707980000        1.7729280000        5.0274255912
Zn               1.5353869748        4.4323126346        5.0274714324
O               -0.0000020000        1.7729546370        6.9513929861
O               -1.5353789317        4.4323056815        6.9513929861
O                3.0707980000        1.7729280000        6.9513630688
O                1.5353749317        4.4323056815        6.9513929861
Zn               1.5354143380        0.8864701233        7.9372508218
Zn               0.0000020000        3.5458540000        7.9371930859
Zn               4.6061896620        0.8864701233        7.9372508218
Zn               3.0708020000        3.5458397533        7.9372508218
O                1.5353733671        0.8864464688        9.7866275088
O                0.0000020000        3.5458540000        9.7867131325
O                4.6062306329        0.8864464688        9.7866275088
O                3.0708020000        3.5458870624        9.7866275088



     Writing config-only to output data dir ./tmp/zno_slab_pure.save/ :
     XML data file
     NEW-OLD atomic charge density approx. for the potential

     Check: negative core charge=   -0.000001

     negative rho (up, down):  2.511E-03 0.000E+00

     total cpu time spent up to now is     7800.0 secs

     per-process dynamical memory:   877.7 Mb

     Self-consistent Calculation

     iteration #  1     ecut=    40.00 Ry     beta= 0.30
     Davidson diagonalization with overlap
     c_bands:  1 eigenvalues not converged
     ethr =  1.00E-06,  avg # of iterations = 15.2

     negative rho (up, down):  2.705E-03 0.000E+00

     total cpu time spent up to now is     7933.4 secs

     total energy              =   -2891.28421108 Ry
     estimated scf accuracy    <       0.53852042 Ry

     iteration #  2     ecut=    40.00 Ry     beta= 0.30
     Davidson diagonalization with overlap
     ethr =  1.87E-04,  avg # of iterations =  1.0

     negative rho (up, down):  2.776E-03 0.000E+00

     total cpu time spent up to now is     7962.8 secs

     total energy              =   -2891.29317656 Ry
     estimated scf accuracy    <       0.65367799 Ry

     iteration #  3     ecut=    40.00 Ry     beta= 0.30
     Davidson diagonalization with overlap
     ethr =  1.87E-04,  avg # of iterations =  1.0

     negative rho (up, down):  3.884E-03 0.000E+00

     total cpu time spent up to now is     7992.1 secs

     total energy              =   -2891.29373814 Ry
     estimated scf accuracy    <       0.02720217 Ry

     iteration #  4     ecut=    40.00 Ry     beta= 0.30
     Davidson diagonalization with overlap
     ethr =  9.45E-06,  avg # of iterations =  1.2

     negative rho (up, down):  4.354E-03 0.000E+00

     total cpu time spent up to now is     8022.1 secs

     total energy              =   -2891.29416716 Ry
     estimated scf accuracy    <       0.02154891 Ry

     iteration #  5     ecut=    40.00 Ry     beta= 0.30
     Davidson diagonalization with overlap
     ethr =  7.48E-06,  avg # of iterations =  1.0

     negative rho (up, down):  4.328E-03 0.000E+00

     total cpu time spent up to now is     8051.4 secs

     total energy              =   -2891.29447684 Ry
     estimated scf accuracy    <       0.01786375 Ry

     iteration #  6     ecut=    40.00 Ry     beta= 0.30
     Davidson diagonalization with overlap
     ethr =  6.20E-06,  avg # of iterations =  1.0

     negative rho (up, down):  3.886E-03 0.000E+00

     total cpu time spent up to now is     8080.8 secs

     total energy              =   -2891.29441393 Ry
     estimated scf accuracy    <       0.00645818 Ry

     iteration #  7     ecut=    40.00 Ry     beta= 0.30
     Davidson diagonalization with overlap
     ethr =  2.24E-06,  avg # of iterations =  1.8

     negative rho (up, down):  3.998E-03 0.000E+00

     total cpu time spent up to now is     8112.1 secs

     total energy              =   -2891.29447518 Ry
     estimated scf accuracy    <       0.00057730 Ry

     iteration #  8     ecut=    40.00 Ry     beta= 0.30
     Davidson diagonalization with overlap
     ethr =  2.00E-07,  avg # of iterations =  3.0

     negative rho (up, down):  4.173E-03 0.000E+00

     total cpu time spent up to now is     8145.0 secs

     total energy              =   -2891.29443721 Ry
     estimated scf accuracy    <       0.00097571 Ry

     iteration #  9     ecut=    40.00 Ry     beta= 0.30
     Davidson diagonalization with overlap
     ethr =  2.00E-07,  avg # of iterations =  5.8

     negative rho (up, down):  4.303E-03 0.000E+00

     total cpu time spent up to now is     8178.3 secs

     total energy              =   -2891.29445971 Ry
     estimated scf accuracy    <       0.00261901 Ry

     iteration # 10     ecut=    40.00 Ry     beta= 0.30
     Davidson diagonalization with overlap
     ethr =  2.00E-07,  avg # of iterations =  1.0

     negative rho (up, down):  4.275E-03 0.000E+00

     total cpu time spent up to now is     8254.2 secs

     total energy              =   -2891.29445006 Ry
     estimated scf accuracy    <       0.00064378 Ry

     iteration # 11     ecut=    40.00 Ry     beta= 0.30
     Davidson diagonalization with overlap
     ethr =  2.00E-07,  avg # of iterations =  1.5

     negative rho (up, down):  4.197E-03 0.000E+00

     total cpu time spent up to now is     8285.2 secs

     total energy              =   -2891.29445642 Ry
     estimated scf accuracy    <       0.00003254 Ry

     iteration # 12     ecut=    40.00 Ry     beta= 0.30
     Davidson diagonalization with overlap
     ethr =  1.13E-08,  avg # of iterations =  2.0

     negative rho (up, down):  4.013E-03 0.000E+00

     total cpu time spent up to now is     8318.0 secs

     total energy              =   -2891.29445411 Ry
     estimated scf accuracy    <       0.00001602 Ry

     iteration # 13     ecut=    40.00 Ry     beta= 0.30
     Davidson diagonalization with overlap
     ethr =  5.56E-09,  avg # of iterations =  2.0

     negative rho (up, down):  3.852E-03 0.000E+00

     total cpu time spent up to now is     8350.6 secs

     total energy              =   -2891.29445299 Ry
     estimated scf accuracy    <       0.00000585 Ry

     iteration # 14     ecut=    40.00 Ry     beta= 0.30
     Davidson diagonalization with overlap
     ethr =  2.03E-09,  avg # of iterations =  3.0

     negative rho (up, down):  3.536E-03 0.000E+00

     total cpu time spent up to now is     8386.9 secs

     total energy              =   -2891.29444932 Ry
     estimated scf accuracy    <       0.00000370 Ry

     iteration # 15     ecut=    40.00 Ry     beta= 0.30
     Davidson diagonalization with overlap
     ethr =  1.28E-09,  avg # of iterations =  4.5

     negative rho (up, down):  3.434E-03 0.000E+00

     total cpu time spent up to now is     8433.0 secs

     total energy              =   -2891.29444853 Ry
     estimated scf accuracy    <       0.00000452 Ry

     iteration # 16     ecut=    40.00 Ry     beta= 0.30
     Davidson diagonalization with overlap
     ethr =  1.28E-09,  avg # of iterations =  1.0

     negative rho (up, down):  3.298E-03 0.000E+00

     total cpu time spent up to now is     8474.8 secs

     total energy              =   -2891.29444746 Ry
     estimated scf accuracy    <       0.00000220 Ry

     iteration # 17     ecut=    40.00 Ry     beta= 0.30
     Davidson diagonalization with overlap
     ethr =  7.62E-10,  avg # of iterations =  1.5

     negative rho (up, down):  2.966E-03 0.000E+00

     total cpu time spent up to now is     8519.0 secs

     total energy              =   -2891.29444596 Ry
     estimated scf accuracy    <       0.00000197 Ry

     iteration # 18     ecut=    40.00 Ry     beta= 0.30
     Davidson diagonalization with overlap
     ethr =  6.83E-10,  avg # of iterations =  2.0

     negative rho (up, down):  2.828E-03 0.000E+00

     total cpu time spent up to now is     8564.4 secs

     total energy              =   -2891.29444573 Ry
     estimated scf accuracy    <       0.00000148 Ry

     iteration # 19     ecut=    40.00 Ry     beta= 0.30
     Davidson diagonalization with overlap
     ethr =  5.13E-10,  avg # of iterations =  1.0

     negative rho (up, down):  2.726E-03 0.000E+00

     total cpu time spent up to now is     8605.9 secs

     total energy              =   -2891.29444570 Ry
     estimated scf accuracy    <       0.00000092 Ry

     iteration # 20     ecut=    40.00 Ry     beta= 0.30
     Davidson diagonalization with overlap
     ethr =  3.18E-10,  avg # of iterations =  1.0

     negative rho (up, down):  2.637E-03 0.000E+00

     total cpu time spent up to now is     8649.1 secs

     total energy              =   -2891.29444575 Ry
     estimated scf accuracy    <       0.00000101 Ry

     iteration # 21     ecut=    40.00 Ry     beta= 0.30
     Davidson diagonalization with overlap
     ethr =  3.18E-10,  avg # of iterations =  1.0

     negative rho (up, down):  2.607E-03 0.000E+00

     total cpu time spent up to now is     8688.3 secs

     End of self-consistent calculation

          k = 0.0000 0.0000 0.0000 ( 28285 PWs)   bands (ev):

   -20.0150 -19.6811 -19.2719 -19.2719 -19.2718 -19.1639 -19.1639 -19.1639
   -19.1417 -18.5687 -18.5687 -18.5687 -17.6182 -17.2381 -17.2381 -17.2379
    -8.4908  -8.3242  -8.3242  -8.3242  -8.2381  -8.2381  -8.2381  -8.1624
    -8.1318  -8.1318  -8.1318  -8.0725  -7.9833  -7.9833  -7.9195  -7.9195
    -7.9195  -7.8165  -7.8165  -7.8165  -7.7750  -7.7750  -7.6660  -7.6421
    -7.6421  -7.6421  -7.5659  -7.5659  -7.5659  -7.3657  -7.3657  -7.3657
    -7.3656  -7.3656  -7.2305  -7.2305  -7.2190  -7.2190  -7.2190  -7.2087
    -7.2087  -7.2087  -6.9849  -6.9848  -6.9848  -6.8704  -6.8703  -6.8703
    -6.8670  -6.8670  -6.6246  -6.6245  -6.6245  -6.3907  -6.3907  -6.3907
    -6.3744  -6.3744  -6.3560  -6.3560  -6.3559  -6.2299  -6.2299  -6.2299
    -6.1819  -6.1819  -6.1307  -6.1127  -6.1127  -6.1127  -6.0652  -6.0652
    -6.0652  -6.0629  -6.0629  -5.9801  -5.9800  -5.9800  -5.9388  -5.9388
    -5.9388  -5.8912  -5.8912  -5.8912  -5.7371  -5.4898  -5.4897  -5.4897
    -4.9548  -4.9547  -4.9547  -4.6082  -4.6081  -4.6081  -4.4759  -3.9538
    -3.9538  -3.9538  -3.5359  -3.5359  -3.5359  -3.5044  -3.5044  -3.5043
    -3.2075  -2.9385  -2.9385  -2.9385  -2.5722  -2.5722  -2.5722  -2.3945
    -2.3945  -2.3945  -2.3786  -2.3786  -2.1868  -2.1868  -2.1867  -2.0806
    -2.0566  -2.0566  -1.7144  -1.7144  -1.3199  -1.3199  -1.3199  -1.0635
    -1.0635  -0.7859  -0.7859  -0.7859  -0.3776  -0.3776  -0.3776  -0.0147
     1.3921   2.6289   3.6282   4.1860   4.1861   4.1861   4.2140   4.2141
     4.2141   4.7315   5.0310   5.0311   5.0311   5.6285   5.6362   5.6363
     5.6367   6.1920   6.5474   6.5514   6.5515

          k = 0.0000 0.2887 0.0000 ( 28254 PWs)   bands (ev):

   -19.9177 -19.6045 -19.3987 -19.2764 -19.2763 -19.2331 -19.1641 -19.1641
   -19.0633 -18.6588 -18.5705 -18.5705 -17.5651 -17.2964 -17.2386 -17.2384
    -8.4179  -8.2965  -8.2619  -8.2619  -8.2051  -8.1758  -8.1758  -8.1381
    -8.1142  -8.1142  -8.0675  -8.0126  -7.9358  -7.9079  -7.8917  -7.8816
    -7.8816  -7.8085  -7.8084  -7.8068  -7.8068  -7.7777  -7.7185  -7.7185
    -7.6943  -7.5963  -7.5905  -7.5300  -7.5300  -7.4147  -7.3925  -7.3615
    -7.3615  -7.3282  -7.2553  -7.2365  -7.2365  -7.2226  -7.1745  -7.1722
    -7.1220  -7.1220  -6.9887  -6.9887  -6.9790  -6.9103  -6.9040  -6.8403
    -6.8403  -6.8266  -6.6620  -6.6594  -6.6594  -6.6308  -6.5253  -6.5253
    -6.4026  -6.3731  -6.3416  -6.3364  -6.3363  -6.2740  -6.2591  -6.2591
    -6.2428  -6.2276  -6.2081  -6.2081  -6.1815  -6.1114  -6.0746  -6.0746
    -6.0682  -6.0676  -6.0645  -6.0417  -5.9904  -5.9315  -5.9315  -5.8959
    -5.8959  -5.7281  -5.7280  -5.6726  -5.5923  -5.3797  -5.3797  -5.3344
    -4.9814  -4.9490  -4.9490  -4.6487  -4.6261  -4.6261  -4.4102  -3.9926
    -3.9926  -3.9273  -3.8164  -3.8164  -3.4519  -3.4519  -3.3472  -3.2791
    -3.2671  -3.2275  -3.2274  -2.8884  -2.7987  -2.7029  -2.7029  -2.5543
    -2.5364  -2.4317  -2.4125  -2.4124  -2.2855  -2.2476  -2.2387  -2.1788
    -2.1573  -2.1572  -2.1226  -2.0173  -1.8054  -1.4862  -1.4862  -1.3852
    -1.3447  -1.3447  -1.2823  -1.1002   0.6792   0.9208   0.9208   1.8777
     2.0555   2.9706   3.3158   3.8947   4.0378   4.2667   4.2667   4.5712
     4.5712   4.6973   4.9955   5.1954   5.1954   5.2756   5.4997   5.4997
     5.9150   6.1992   6.1993   6.5985   6.7062

          k = 0.0000-0.5774 0.0000 ( 28240 PWs)   bands (ev):

   -19.6704 -19.6704 -19.4176 -19.4176 -19.2808 -19.2808 -19.1644 -19.1644
   -18.8668 -18.8668 -18.5722 -18.5722 -17.4334 -17.4332 -17.2390 -17.2388
    -8.3020  -8.3019  -8.1830  -8.1829  -8.1214  -8.1214  -8.1197  -8.1197
    -8.0797  -8.0797  -8.0583  -8.0583  -7.9192  -7.9192  -7.8279  -7.8279
    -7.8221  -7.8220  -7.8197  -7.8197  -7.7884  -7.7883  -7.7137  -7.7137
    -7.6595  -7.6595  -7.4889  -7.4888  -7.4570  -7.4570  -7.4139  -7.4139
    -7.2670  -7.2670  -7.2572  -7.2571  -7.2261  -7.2261  -7.1256  -7.1256
    -7.0287  -7.0287  -7.0112  -7.0112  -6.9901  -6.9901  -6.9053  -6.9053
    -6.8245  -6.8245  -6.7410  -6.7410  -6.7285  -6.7284  -6.4988  -6.4988
    -6.4208  -6.4207  -6.3736  -6.3736  -6.3442  -6.3442  -6.3118  -6.3117
    -6.3082  -6.3081  -6.2950  -6.2949  -6.1429  -6.1428  -6.1321  -6.1320
    -6.1230  -6.1230  -6.0523  -6.0523  -6.0202  -6.0202  -5.9057  -5.9057
    -5.8251  -5.8251  -5.6111  -5.6111  -5.1790  -5.1790  -5.1659  -5.1659
    -4.7942  -4.7942  -4.7371  -4.7371  -4.5119  -4.5119  -4.2401  -4.2400
    -4.1196  -4.1195  -3.9531  -3.9531  -3.7179  -3.7179  -3.4991  -3.4991
    -3.2061  -3.2060  -3.1840  -3.1840  -3.0054  -3.0054  -2.9280  -2.9279
    -2.5817  -2.5817  -2.4807  -2.4806  -2.2618  -2.2617  -2.1304  -2.1304
    -2.0695  -2.0695  -2.0372  -2.0371  -1.9461  -1.9461  -1.7035  -1.7035
    -1.5245  -1.5245  -1.1912  -1.1911   1.9211   1.9211   2.7072   2.7072
     2.8313   2.8313   3.5361   3.5361   3.6268   3.6269   4.4099   4.4099
     4.7424   4.7424   4.8761   4.8761   5.3172   5.3172   5.5272   5.5273
     5.7633   5.7633   6.2149   6.2156   6.8632

          k = 0.2500 0.4330 0.0000 ( 28256 PWs)   bands (ev):

   -19.7451 -19.4835 -19.4835 -19.4726 -19.2866 -19.2866 -19.1824 -19.1262
   -18.9256 -18.7218 -18.7218 -18.5088 -17.4725 -17.3374 -17.3372 -17.1975
    -8.3235  -8.2434  -8.2434  -8.1534  -8.1434  -8.1434  -8.1053  -8.0964
    -8.0964  -8.0605  -8.0466  -8.0322  -7.9404  -7.9100  -7.8606  -7.8606
    -7.8344  -7.8268  -7.8094  -7.8094  -7.7773  -7.7730  -7.7730  -7.6850
    -7.6653  -7.5953  -7.5953  -7.4831  -7.4717  -7.3993  -7.3993  -7.3866
    -7.3202  -7.3075  -7.3075  -7.2376  -7.2185  -7.2159  -7.1113  -7.1113
    -7.0770  -7.0357  -6.9813  -6.9813  -6.9656  -6.9656  -6.9563  -6.9134
    -6.7842  -6.7729  -6.7729  -6.6731  -6.6731  -6.6663  -6.5983  -6.4542
    -6.4242  -6.3883  -6.3882  -6.3574  -6.3389  -6.3320  -6.3319  -6.2844
    -6.2844  -6.2786  -6.2512  -6.2323  -6.1891  -6.1585  -6.1286  -6.1285
    -6.1016  -6.0763  -6.0472  -6.0472  -6.0281  -6.0281  -6.0238  -5.9404
    -5.7941  -5.7788  -5.7788  -5.7293  -5.4365  -5.3018  -4.9903  -4.9903
    -4.9587  -4.7951  -4.7951  -4.7803  -4.4470  -4.4470  -4.3946  -4.2643
    -4.0683  -3.9548  -3.9548  -3.6698  -3.6418  -3.5504  -3.5017  -3.4232
    -3.4232  -3.2578  -3.2578  -3.1977  -3.0558  -2.9124  -2.9124  -2.8133
    -2.5353  -2.5191  -2.5191  -2.4780  -2.3698  -2.3698  -2.2851  -2.1646
    -2.1645  -2.1491  -2.0763  -2.0556  -2.0556  -2.0329  -1.8737  -1.7248
    -1.3788  -1.3788  -1.2150   0.3635   0.3925   1.5977   2.5849   2.8861
     2.9236   2.9236   3.4417   3.4418   3.4798   3.8627   3.8627   4.6046
     4.7559   4.7559   5.2042   5.2042   5.2161   5.4665   5.5687   6.0901
     6.2586   6.4817   6.4914   6.4916   7.0000

     the Fermi energy is    -1.4149 ev

!    total energy              =   -2891.29444577 Ry
     estimated scf accuracy    <       0.00000007 Ry
     smearing contrib. (-TS)   =      -0.00531788 Ry
     internal energy E=F+TS    =   -2891.28912789 Ry

     The total energy is F=E-TS. E is the sum of the following terms:
     one-electron contribution =  -33639.61882117 Ry
     hartree contribution      =   17053.86544503 Ry
     xc contribution           =    -874.24392687 Ry
     ewald contribution        =   14568.70817511 Ry

     convergence has been achieved in  21 iterations

     negative rho (up, down):  2.607E-03 0.000E+00

     Forces acting on atoms (cartesian axes, Ry/au):

     atom    1 type  1   force =     0.00000000    0.00000085    0.01679034
     atom    2 type  1   force =     0.00000073   -0.00000042    0.01679034
     atom    3 type  1   force =     0.00000000    0.00000000    0.01679319
     atom    4 type  1   force =    -0.00000073   -0.00000042    0.01679034
     atom    5 type  2   force =     0.00000000   -0.00000324   -0.01394179
     atom    6 type  2   force =    -0.00000281    0.00000162   -0.01394179
     atom    7 type  2   force =     0.00000000    0.00000000   -0.01394333
     atom    8 type  2   force =     0.00000281    0.00000162   -0.01394179
     atom    9 type  1   force =     0.00000033    0.00000019   -0.01536442
     atom   10 type  1   force =     0.00000000    0.00000000   -0.01536116
     atom   11 type  1   force =    -0.00000033    0.00000019   -0.01536442
     atom   12 type  1   force =     0.00000000   -0.00000038   -0.01536442
     atom   13 type  2   force =    -0.00000152   -0.00000088   -0.00563938
     atom   14 type  2   force =     0.00000000    0.00000000   -0.00563322
     atom   15 type  2   force =     0.00000152   -0.00000088   -0.00563938
     atom   16 type  2   force =     0.00000000    0.00000176   -0.00563938
     atom   17 type  1   force =     0.00000000    0.00000046    0.01484986
     atom   18 type  1   force =     0.00000040   -0.00000023    0.01484986
     atom   19 type  1   force =     0.00000000   -0.00000000    0.01485714
     atom   20 type  1   force =    -0.00000040   -0.00000023    0.01484986
     atom   21 type  2   force =     0.00000000   -0.00002004    0.02149810
     atom   22 type  2   force =    -0.00001736    0.00001002    0.02149810
     atom   23 type  2   force =     0.00000000    0.00000000    0.02150718
     atom   24 type  2   force =     0.00001736    0.00001002    0.02149810
     atom   25 type  1   force =    -0.00000546   -0.00000315   -0.00846394
     atom   26 type  1   force =     0.00000000   -0.00000000   -0.00839794
     atom   27 type  1   force =     0.00000546   -0.00000315   -0.00846394
     atom   28 type  1   force =     0.00000000    0.00000630   -0.00846394
     atom   29 type  2   force =    -0.00000365   -0.00000210   -0.00972425
     atom   30 type  2   force =     0.00000000    0.00000000   -0.00983539
     atom   31 type  2   force =     0.00000365   -0.00000210   -0.00972425
     atom   32 type  2   force =     0.00000000    0.00000421   -0.00972425

     Total force =     0.079836     Total SCF correction =     0.001528
     Energy error            =      3.2E-02 Ry
     Gradient error          =      2.2E-02 Ry/Bohr

     number of scf cycles    =   8
     number of bfgs steps    =   7

     energy             old  =   -2891.2628853235 Ry
     energy             new  =   -2891.2944457688 Ry

     CASE: energy            _new < energy            _old

     new trust radius        =       0.0787111815 bohr
     new conv_thr            =       0.0000002151 Ry


ATOMIC_POSITIONS (angstrom)
Zn              -0.0000020000        1.7729486169       -0.5904938678
Zn              -1.5353841453        4.4323086916       -0.5904938678
Zn               3.0707980000        1.7729280000       -0.5904825822
Zn               1.5353801453        4.4323086916       -0.5904938678
O               -0.0000020000        1.7729238976        1.3856610480
O               -1.5354055528        4.4323210512        1.3856610480
O                3.0707980000        1.7729280000        1.3856689916
O                1.5354015528        4.4323210512        1.3856610480
Zn               1.5353999021        0.8864617888        2.2555381944
Zn               0.0000020000        3.5458540000        2.2555294988
Zn               4.6062040979        0.8864617888        2.2555381944
Zn               3.0708020000        3.5458564224        2.2555381944
O                1.5353920492        0.8864572549        4.1904379072
O                0.0000020000        3.5458540000        4.1904201802
O                4.6062119508        0.8864572549        4.1904379072
O                3.0708020000        3.5458654902        4.1904379072
Zn              -0.0000020000        1.7729424466        5.0533011082
Zn              -1.5353894888        4.4323117767        5.0533011082
Zn               3.0707980000        1.7729280000        5.0532605585
Zn               1.5353854888        4.4323117767        5.0533011082
O               -0.0000020000        1.7729364347        6.9930330231
O               -1.5353946953        4.4323147826        6.9930330231
O                3.0707980000        1.7729280000        6.9930152323
O                1.5353906953        4.4323147826        6.9930330231
Zn               1.5354111447        0.8864682797        7.9368298205
Zn               0.0000020000        3.5458540000        7.9367853622
Zn               4.6061928553        0.8864682797        7.9368298205
Zn               3.0708020000        3.5458434406        7.9368298205
O                1.5353679490        0.8864433407        9.7961659061
O                0.0000020000        3.5458540000        9.7961593396
O                4.6062360510        0.8864433407        9.7961659061
O                3.0708020000        3.5458933187        9.7961659061



     Writing config-only to output data dir ./tmp/zno_slab_pure.save/ :
     XML data file
     NEW-OLD atomic charge density approx. for the potential

     Check: negative core charge=   -0.000001

     negative rho (up, down):  2.600E-03 0.000E+00

     total cpu time spent up to now is     8701.4 secs

     per-process dynamical memory:   877.7 Mb

     Self-consistent Calculation

     iteration #  1     ecut=    40.00 Ry     beta= 0.30
     Davidson diagonalization with overlap
     ethr =  1.00E-06,  avg # of iterations = 12.2

     negative rho (up, down):  2.723E-03 0.000E+00

     total cpu time spent up to now is     8857.1 secs

     total energy              =   -2891.30555748 Ry
     estimated scf accuracy    <       0.00747426 Ry

     iteration #  2     ecut=    40.00 Ry     beta= 0.30
     Davidson diagonalization with overlap
     ethr =  2.60E-06,  avg # of iterations =  1.0

     negative rho (up, down):  2.972E-03 0.000E+00

     total cpu time spent up to now is     8900.7 secs

     total energy              =   -2891.30480202 Ry
     estimated scf accuracy    <       0.00611936 Ry

     iteration #  3     ecut=    40.00 Ry     beta= 0.30
     Davidson diagonalization with overlap
     ethr =  2.12E-06,  avg # of iterations =  1.0

     negative rho (up, down):  3.504E-03 0.000E+00

     total cpu time spent up to now is     8942.5 secs

     total energy              =   -2891.30423021 Ry
     estimated scf accuracy    <       0.00296200 Ry

     iteration #  4     ecut=    40.00 Ry     beta= 0.30
     Davidson diagonalization with overlap
     ethr =  1.03E-06,  avg # of iterations =  2.0

     negative rho (up, down):  3.705E-03 0.000E+00

     total cpu time spent up to now is     8987.8 secs

     total energy              =   -2891.30432808 Ry
     estimated scf accuracy    <       0.00102857 Ry

     iteration #  5     ecut=    40.00 Ry     beta= 0.30
     Davidson diagonalization with overlap
     ethr =  3.57E-07,  avg # of iterations =  2.0

     negative rho (up, down):  3.839E-03 0.000E+00

     total cpu time spent up to now is     9035.1 secs

     total energy              =   -2891.30435192 Ry
     estimated scf accuracy    <       0.00215210 Ry

     iteration #  6     ecut=    40.00 Ry     beta= 0.30
     Davidson diagonalization with overlap
     ethr =  3.57E-07,  avg # of iterations =  1.0

     negative rho (up, down):  4.168E-03 0.000E+00

     total cpu time spent up to now is     9076.6 secs

     total energy              =   -2891.30434058 Ry
     estimated scf accuracy    <       0.00094470 Ry

     iteration #  7     ecut=    40.00 Ry     beta= 0.30
     Davidson diagonalization with overlap
     ethr =  3.28E-07,  avg # of iterations =  1.8

     negative rho (up, down):  4.435E-03 0.000E+00

     total cpu time spent up to now is     9121.9 secs

     total energy              =   -2891.30434999 Ry
     estimated scf accuracy    <       0.00015955 Ry

     iteration #  8     ecut=    40.00 Ry     beta= 0.30
     Davidson diagonalization with overlap
     ethr =  5.54E-08,  avg # of iterations =  2.0

     negative rho (up, down):  4.366E-03 0.000E+00

     total cpu time spent up to now is     9168.5 secs

     total energy              =   -2891.30435175 Ry
     estimated scf accuracy    <       0.00010834 Ry

     iteration #  9     ecut=    40.00 Ry     beta= 0.30
     Davidson diagonalization with overlap
     ethr =  3.76E-08,  avg # of iterations =  2.0

     negative rho (up, down):  4.234E-03 0.000E+00

     total cpu time spent up to now is     9213.0 secs

     total energy              =   -2891.30435172 Ry
     estimated scf accuracy    <       0.00002590 Ry

     iteration # 10     ecut=    40.00 Ry     beta= 0.30
     Davidson diagonalization with overlap
     ethr =  8.99E-09,  avg # of iterations =  3.5

     negative rho (up, down):  4.010E-03 0.000E+00

     total cpu time spent up to now is     9261.8 secs

     total energy              =   -2891.30434909 Ry
     estimated scf accuracy    <       0.00001349 Ry

     iteration # 11     ecut=    40.00 Ry     beta= 0.30
     Davidson diagonalization with overlap
     ethr =  4.69E-09,  avg # of iterations =  2.0

     negative rho (up, down):  3.871E-03 0.000E+00

     total cpu time spent up to now is     9309.9 secs

     total energy              =   -2891.30434848 Ry
     estimated scf accuracy    <       0.00000601 Ry

     iteration # 12     ecut=    40.00 Ry     beta= 0.30
     Davidson diagonalization with overlap
     ethr =  2.09E-09,  avg # of iterations =  2.0

     negative rho (up, down):  3.426E-03 0.000E+00

     total cpu time spent up to now is     9358.0 secs

     total energy              =   -2891.30434341 Ry
     estimated scf accuracy    <       0.00000514 Ry

     iteration # 13     ecut=    40.00 Ry     beta= 0.30
     Davidson diagonalization with overlap
     ethr =  1.79E-09,  avg # of iterations =  3.0

     negative rho (up, down):  3.331E-03 0.000E+00

     total cpu time spent up to now is     9414.4 secs

     total energy              =   -2891.30434232 Ry
     estimated scf accuracy    <       0.00000351 Ry

     iteration # 14     ecut=    40.00 Ry     beta= 0.30
     Davidson diagonalization with overlap
     ethr =  1.22E-09,  avg # of iterations =  2.0

     negative rho (up, down):  3.117E-03 0.000E+00

     total cpu time spent up to now is     9494.7 secs

     total energy              =   -2891.30434145 Ry
     estimated scf accuracy    <       0.00000192 Ry

     iteration # 15     ecut=    40.00 Ry     beta= 0.30
     Davidson diagonalization with overlap
     ethr =  6.66E-10,  avg # of iterations =  4.2

     negative rho (up, down):  2.793E-03 0.000E+00

     total cpu time spent up to now is     9581.1 secs

     total energy              =   -2891.30434018 Ry
     estimated scf accuracy    <       0.00000203 Ry

     iteration # 16     ecut=    40.00 Ry     beta= 0.30
     Davidson diagonalization with overlap
     ethr =  6.66E-10,  avg # of iterations =  4.8

     negative rho (up, down):  2.737E-03 0.000E+00

     total cpu time spent up to now is     9688.2 secs

     total energy              =   -2891.30434030 Ry
     estimated scf accuracy    <       0.00000187 Ry

     iteration # 17     ecut=    40.00 Ry     beta= 0.30
     Davidson diagonalization with overlap
     ethr =  6.50E-10,  avg # of iterations =  4.0

     negative rho (up, down):  2.673E-03 0.000E+00

     total cpu time spent up to now is     9796.5 secs

     total energy              =   -2891.30434068 Ry
     estimated scf accuracy    <       0.00000031 Ry

     iteration # 18     ecut=    40.00 Ry     beta= 0.30
     Davidson diagonalization with overlap
     ethr =  1.08E-10,  avg # of iterations =  5.0

     negative rho (up, down):  2.658E-03 0.000E+00

     total cpu time spent up to now is     9918.7 secs

     total energy              =   -2891.30434068 Ry
     estimated scf accuracy    <       0.00000058 Ry

     iteration # 19     ecut=    40.00 Ry     beta= 0.30
     Davidson diagonalization with overlap
     ethr =  1.08E-10,  avg # of iterations =  2.0

     negative rho (up, down):  2.645E-03 0.000E+00

     total cpu time spent up to now is     9956.7 secs

     total energy              =   -2891.30434065 Ry
     estimated scf accuracy    <       0.00000022 Ry

     iteration # 20     ecut=    40.00 Ry     beta= 0.30
     Davidson diagonalization with overlap
     ethr =  7.64E-11,  avg # of iterations =  4.2

     negative rho (up, down):  2.610E-03 0.000E+00

     total cpu time spent up to now is     9999.0 secs

     End of self-consistent calculation

          k = 0.0000 0.0000 0.0000 ( 28285 PWs)   bands (ev):

   -20.0764 -19.7107 -19.3872 -19.3872 -19.3872 -19.2478 -19.1307 -19.1307
   -19.1307 -18.6837 -18.6837 -18.6837 -17.5709 -17.1899 -17.1899 -17.1898
    -8.6329  -8.4294  -8.4294  -8.4294  -8.2562  -8.2562  -8.2562  -8.2029
    -8.2029  -8.2029  -8.1900  -8.0685  -7.9921  -7.9921  -7.8865  -7.8865
    -7.8864  -7.8576  -7.8576  -7.8576  -7.8282  -7.8282  -7.7001  -7.6503
    -7.6503  -7.6503  -7.5866  -7.5866  -7.5866  -7.4310  -7.4310  -7.4310
    -7.4158  -7.4158  -7.2701  -7.2701  -7.2701  -7.2601  -7.2600  -7.2600
    -7.2352  -7.2351  -6.9817  -6.9817  -6.9817  -6.9314  -6.9314  -6.9313
    -6.9201  -6.9201  -6.6446  -6.6446  -6.6446  -6.4875  -6.4874  -6.4788
    -6.4788  -6.4788  -6.3535  -6.3535  -6.3534  -6.3452  -6.3452  -6.3452
    -6.1739  -6.1739  -6.1628  -6.1628  -6.1628  -6.1496  -6.1016  -6.1016
    -6.0767  -6.0766  -6.0766  -6.0142  -6.0142  -6.0142  -5.9429  -5.9428
    -5.9428  -5.9206  -5.9206  -5.9206  -5.7221  -5.5801  -5.5801  -5.5800
    -5.0446  -5.0446  -5.0446  -4.7048  -4.7048  -4.7048  -4.5362  -4.0231
    -4.0231  -4.0231  -3.5852  -3.5852  -3.5852  -3.5812  -3.5812  -3.5812
    -3.2492  -3.0226  -3.0226  -3.0226  -2.5712  -2.5712  -2.5712  -2.4795
    -2.4795  -2.4594  -2.4594  -2.4594  -2.1458  -2.1458  -2.1458  -2.1179
    -2.1178  -2.1178  -1.7703  -1.7703  -1.3019  -1.3019  -1.3019  -1.0411
    -1.0411  -0.7746  -0.7746  -0.7745  -0.3415  -0.3415  -0.3415  -0.1010
     1.3367   2.6485   3.5864   4.0427   4.0427   4.0427   4.0900   4.0900
     4.0900   4.7549   4.9539   4.9539   4.9539   5.6386   5.6598   5.6598
     5.6599   6.1590   6.5237   6.5238   6.5741

          k = 0.0000 0.2887 0.0000 ( 28254 PWs)   bands (ev):

   -19.9825 -19.6296 -19.4961 -19.3902 -19.3902 -19.2194 -19.1704 -19.1325
   -19.1324 -18.7721 -18.6853 -18.6853 -17.5177 -17.2484 -17.1903 -17.1902
    -8.5478  -8.4001  -8.3621  -8.3621  -8.2407  -8.2192  -8.2192  -8.1899
    -8.1655  -8.1655  -8.1037  -8.0229  -7.9449  -7.9160  -7.9111  -7.9111
    -7.8688  -7.8507  -7.8500  -7.8266  -7.7909  -7.7909  -7.7276  -7.7276
    -7.7026  -7.6287  -7.6091  -7.5477  -7.5477  -7.4546  -7.4504  -7.4105
    -7.4105  -7.3781  -7.2844  -7.2844  -7.2729  -7.2638  -7.2162  -7.1852
    -7.1827  -7.1827  -7.0060  -6.9929  -6.9929  -6.9654  -6.9609  -6.9016
    -6.9015  -6.8773  -6.7145  -6.7043  -6.7043  -6.6873  -6.5932  -6.5932
    -6.5126  -6.4856  -6.3871  -6.3823  -6.3823  -6.3409  -6.3028  -6.3027
    -6.2309  -6.2185  -6.1894  -6.1894  -6.1726  -6.1354  -6.1232  -6.1042
    -6.0940  -6.0940  -6.0901  -6.0631  -6.0153  -6.0152  -6.0051  -5.9052
    -5.9051  -5.8136  -5.8136  -5.7484  -5.6013  -5.4329  -5.4328  -5.3967
    -5.0516  -5.0311  -5.0311  -4.7573  -4.7339  -4.7339  -4.4677  -4.0476
    -4.0476  -3.9893  -3.8839  -3.8838  -3.5393  -3.5392  -3.4014  -3.3497
    -3.3307  -3.2971  -3.2971  -2.9688  -2.8794  -2.7610  -2.7610  -2.6286
    -2.6165  -2.4184  -2.4154  -2.4153  -2.3490  -2.3001  -2.2437  -2.2370
    -2.1186  -2.1186  -2.0922  -2.0320  -1.8630  -1.4674  -1.4674  -1.3625
    -1.3204  -1.3203  -1.2638  -1.0786   0.5802   0.9378   0.9378   1.8292
     2.0479   2.9951   3.1936   3.7881   3.9838   4.1338   4.1338   4.3991
     4.3991   4.7511   5.0103   5.2300   5.2300   5.2441   5.4876   5.4876
     5.9267   6.1833   6.1836   6.5597   6.7082

          k = 0.0000-0.5774 0.0000 ( 28240 PWs)   bands (ev):

   -19.7468 -19.7468 -19.4283 -19.4283 -19.3932 -19.3932 -19.1342 -19.1342
   -18.9768 -18.9767 -18.6870 -18.6870 -17.3857 -17.3856 -17.1907 -17.1907
    -8.4120  -8.4120  -8.2825  -8.2825  -8.1969  -8.1969  -8.1728  -8.1728
    -8.1114  -8.1114  -8.0784  -8.0784  -7.9567  -7.9567  -7.8416  -7.8416
    -7.8388  -7.8388  -7.8188  -7.8187  -7.8144  -7.8143  -7.6959  -7.6959
    -7.6651  -7.6651  -7.5062  -7.5062  -7.4957  -7.4957  -7.4494  -7.4494
    -7.3018  -7.3017  -7.2998  -7.2998  -7.2818  -7.2818  -7.1746  -7.1746
    -7.0657  -7.0657  -7.0508  -7.0507  -7.0192  -7.0192  -6.9624  -6.9624
    -6.9037  -6.9037  -6.7833  -6.7833  -6.7814  -6.7814  -6.5547  -6.5547
    -6.5152  -6.5152  -6.4558  -6.4558  -6.4199  -6.4199  -6.3430  -6.3430
    -6.2893  -6.2892  -6.2764  -6.2764  -6.1680  -6.1680  -6.1490  -6.1490
    -6.1368  -6.1368  -6.0906  -6.0906  -6.0239  -6.0239  -5.9760  -5.9760
    -5.8467  -5.8467  -5.6966  -5.6966  -5.2346  -5.2346  -5.2275  -5.2275
    -4.8771  -4.8771  -4.8195  -4.8195  -4.6051  -4.6051  -4.2998  -4.2998
    -4.1614  -4.1613  -4.0352  -4.0352  -3.8089  -3.8089  -3.5733  -3.5733
    -3.2612  -3.2611  -3.2522  -3.2522  -3.0663  -3.0663  -3.0011  -3.0011
    -2.6251  -2.6251  -2.5537  -2.5537  -2.2537  -2.2537  -2.0979  -2.0979
    -2.0945  -2.0944  -2.0457  -2.0457  -1.9403  -1.9403  -1.6842  -1.6842
    -1.4999  -1.4999  -1.1712  -1.1712   1.8014   1.8014   2.7109   2.7109
     2.7853   2.7854   3.5346   3.5346   3.6440   3.6441   4.2719   4.2719
     4.6616   4.6616   4.6891   4.6891   5.3906   5.3907   5.5435   5.5436
     5.8150   5.8150   6.2459   6.2465   6.8740

          k = 0.2500 0.4330 0.0000 ( 28256 PWs)   bands (ev):

   -19.8174 -19.5726 -19.5726 -19.4882 -19.3174 -19.2823 -19.2822 -19.0724
   -19.0347 -18.8341 -18.8341 -18.6248 -17.4249 -17.2894 -17.2893 -17.1491
    -8.4377  -8.3480  -8.3480  -8.2457  -8.2136  -8.2136  -8.1891  -8.1233
    -8.1129  -8.1129  -8.0785  -8.0454  -7.9708  -7.9224  -7.8920  -7.8920
    -7.8577  -7.8427  -7.8192  -7.8192  -7.7950  -7.7680  -7.7680  -7.6728
    -7.6644  -7.6033  -7.6032  -7.5265  -7.4841  -7.4507  -7.4507  -7.4307
    -7.3463  -7.3461  -7.3461  -7.2829  -7.2736  -7.2499  -7.1447  -7.1447
    -7.1104  -7.0753  -7.0402  -7.0402  -7.0192  -7.0192  -6.9728  -6.9681
    -6.8280  -6.8204  -6.8204  -6.7412  -6.7181  -6.7181  -6.6784  -6.5319
    -6.5171  -6.4760  -6.4760  -6.4648  -6.3749  -6.3749  -6.3473  -6.2825
    -6.2824  -6.2802  -6.2656  -6.2159  -6.1792  -6.1609  -6.1446  -6.1417
    -6.1417  -6.1115  -6.1115  -6.1048  -6.0402  -6.0386  -6.0386  -6.0345
    -5.8773  -5.8229  -5.8229  -5.7432  -5.4881  -5.3439  -5.0718  -5.0718
    -5.0499  -4.8918  -4.8918  -4.8496  -4.5065  -4.5065  -4.4654  -4.3690
    -4.1687  -4.0090  -4.0090  -3.7374  -3.7257  -3.5954  -3.5641  -3.4910
    -3.4909  -3.3217  -3.3217  -3.2653  -3.1187  -2.9841  -2.9841  -2.8937
    -2.5928  -2.5551  -2.5550  -2.5376  -2.4004  -2.4003  -2.2754  -2.1464
    -2.1464  -2.1318  -2.1092  -2.0454  -2.0454  -2.0282  -1.8567  -1.7143
    -1.3587  -1.3587  -1.1937   0.3753   0.4300   1.4853   2.5405   2.7780
     2.7780   2.8927   3.4377   3.4378   3.5029   3.7956   3.7956   4.5264
     4.7959   4.7959   5.0514   5.1605   5.1605   5.4339   5.4817   6.1118
     6.1175   6.4935   6.4939   6.4998   7.0356

     the Fermi energy is    -1.3933 ev

!    total energy              =   -2891.30434065 Ry
     estimated scf accuracy    <       0.00000013 Ry
     smearing contrib. (-TS)   =      -0.00555552 Ry
     internal energy E=F+TS    =   -2891.29878513 Ry

     The total energy is F=E-TS. E is the sum of the following terms:
     one-electron contribution =  -33509.73233962 Ry
     hartree contribution      =   16988.46574892 Ry
     xc contribution           =    -874.23052508 Ry
     ewald contribution        =   14504.19833065 Ry

     convergence has been achieved in  20 iterations

     negative rho (up, down):  2.610E-03 0.000E+00

     Forces acting on atoms (cartesian axes, Ry/au):

     atom    1 type  1   force =     0.00000000   -0.00000043    0.00456042
     atom    2 type  1   force =    -0.00000037    0.00000022    0.00456042
     atom    3 type  1   force =     0.00000000    0.00000000    0.00456018
     atom    4 type  1   force =     0.00000037    0.00000022    0.00456042
     atom    5 type  2   force =     0.00000000    0.00000159   -0.00193463
     atom    6 type  2   force =     0.00000138   -0.00000079   -0.00193463
     atom    7 type  2   force =     0.00000000   -0.00000000   -0.00193294
     atom    8 type  2   force =    -0.00000138   -0.00000079   -0.00193463
     atom    9 type  1   force =    -0.00000036   -0.00000021   -0.00272879
     atom   10 type  1   force =     0.00000000   -0.00000000   -0.00273203
     atom   11 type  1   force =     0.00000036   -0.00000021   -0.00272879
     atom   12 type  1   force =     0.00000000    0.00000041   -0.00272879
     atom   13 type  2   force =     0.00000040    0.00000023   -0.00382917
     atom   14 type  2   force =     0.00000000    0.00000000   -0.00382610
     atom   15 type  2   force =    -0.00000040    0.00000023   -0.00382917
     atom   16 type  2   force =     0.00000000   -0.00000046   -0.00382917
     atom   17 type  1   force =     0.00000000   -0.00000321    0.00819751
     atom   18 type  1   force =    -0.00000278    0.00000160    0.00819751
     atom   19 type  1   force =     0.00000000    0.00000000    0.00820105
     atom   20 type  1   force =     0.00000278    0.00000160    0.00819751
     atom   21 type  2   force =     0.00000000   -0.00000791    0.00129380
     atom   22 type  2   force =    -0.00000685    0.00000395    0.00129380
     atom   23 type  2   force =     0.00000000   -0.00000000    0.00129771
     atom   24 type  2   force =     0.00000685    0.00000395    0.00129380
     atom   25 type  1   force =    -0.00000536   -0.00000310    0.00589073
     atom   26 type  1   force =     0.00000000    0.00000000    0.00593749
     atom   27 type  1   force =     0.00000536   -0.00000310    0.00589073
     atom   28 type  1   force =     0.00000000    0.00000619    0.00589073
     atom   29 type  2   force =    -0.00000420   -0.00000243   -0.01145903
     atom   30 type  2   force =     0.00000000   -0.00000000   -0.01147787
     atom   31 type  2   force =     0.00000420   -0.00000243   -0.01145903
     atom   32 type  2   force =     0.00000000    0.00000485   -0.01145903

     Total force =     0.033573     Total SCF correction =     0.002209
     Energy error            =      9.9E-03 Ry
     Gradient error          =      1.1E-02 Ry/Bohr

     number of scf cycles    =   9
     number of bfgs steps    =   8

     energy             old  =   -2891.2944457688 Ry
     energy             new  =   -2891.3043406519 Ry

     CASE: energy            _new < energy            _old

     new trust radius        =       0.0269714858 bohr
     new conv_thr            =       0.0000001148 Ry


ATOMIC_POSITIONS (angstrom)
Zn              -0.0000020000        1.7729482183       -0.5770193797
Zn              -1.5353844904        4.4323088908       -0.5770193797
Zn               3.0707980000        1.7729280000       -0.5770081529
Zn               1.5353804904        4.4323088908       -0.5770193797
O               -0.0000020000        1.7729245592        1.3875939751
O               -1.5354049798        4.4323207204        1.3875939751
O                3.0707980000        1.7729280000        1.3876027381
O                1.5354009798        4.4323207204        1.3875939751
Zn               1.5353998414        0.8864617537        2.2529542635
Zn               0.0000020000        3.5458540000        2.2529440848
Zn               4.6062041586        0.8864617537        2.2529542635
Zn               3.0708020000        3.5458564926        2.2529542635
O                1.5353921854        0.8864573335        4.1891995629
O                0.0000020000        3.5458540000        4.1891845176
O                4.6062118146        0.8864573335        4.1891995629
O                3.0708020000        3.5458653329        4.1891995629
Zn              -0.0000020000        1.7729402798        5.0592076365
Zn              -1.5353913654        4.4323128601        5.0592076365
Zn               3.0707980000        1.7729280000        5.0591705539
Zn               1.5353873654        4.4323128601        5.0592076365
O               -0.0000020000        1.7729294860        6.9966320466
O               -1.5354007131        4.4323182570        6.9966320466
O                3.0707980000        1.7729280000        6.9966187325
O                1.5353967131        4.4323182570        6.9966320466
Zn               1.5354071500        0.8864659733        7.9299872290
Zn               0.0000020000        3.5458540000        7.9299692951
Zn               4.6061968500        0.8864659733        7.9299872290
Zn               3.0708020000        3.5458480533        7.9299872290
O                1.5353652449        0.8864417794        9.7819138616
O                0.0000020000        3.5458540000        9.7818866440
O                4.6062387551        0.8864417794        9.7819138616
O                3.0708020000        3.5458964412        9.7819138616



     Writing config-only to output data dir ./tmp/zno_slab_pure.save/ :
     XML data file
     NEW-OLD atomic charge density approx. for the potential

     Check: negative core charge=   -0.000001

     negative rho (up, down):  2.651E-03 0.000E+00

     total cpu time spent up to now is    10012.9 secs

     per-process dynamical memory:   877.7 Mb

     Self-consistent Calculation

     iteration #  1     ecut=    40.00 Ry     beta= 0.30
     Davidson diagonalization with overlap
     ethr =  1.00E-06,  avg # of iterations =  6.2

     negative rho (up, down):  2.676E-03 0.000E+00

     total cpu time spent up to now is    10109.7 secs

     total energy              =   -2891.30472336 Ry
     estimated scf accuracy    <       0.03743437 Ry

     iteration #  2     ecut=    40.00 Ry     beta= 0.30
     Davidson diagonalization with overlap
     ethr =  1.30E-05,  avg # of iterations =  1.0

     negative rho (up, down):  2.681E-03 0.000E+00

     total cpu time spent up to now is    10141.3 secs

     total energy              =   -2891.30528802 Ry
     estimated scf accuracy    <       0.04902679 Ry

     iteration #  3     ecut=    40.00 Ry     beta= 0.30
     Davidson diagonalization with overlap
     ethr =  1.30E-05,  avg # of iterations =  1.0

     negative rho (up, down):  2.753E-03 0.000E+00

     total cpu time spent up to now is    10172.7 secs

     total energy              =   -2891.30558062 Ry
     estimated scf accuracy    <       0.00026262 Ry

     iteration #  4     ecut=    40.00 Ry     beta= 0.30
     Davidson diagonalization with overlap
     ethr =  9.12E-08,  avg # of iterations =  2.0

     negative rho (up, down):  2.785E-03 0.000E+00

     total cpu time spent up to now is    10206.4 secs

     total energy              =   -2891.30558155 Ry
     estimated scf accuracy    <       0.00040574 Ry

     iteration #  5     ecut=    40.00 Ry     beta= 0.30
     Davidson diagonalization with overlap
     ethr =  9.12E-08,  avg # of iterations =  1.0

     negative rho (up, down):  2.845E-03 0.000E+00

     total cpu time spent up to now is    10237.7 secs

     total energy              =   -2891.30558358 Ry
     estimated scf accuracy    <       0.00026960 Ry

     iteration #  6     ecut=    40.00 Ry     beta= 0.30
     Davidson diagonalization with overlap
     ethr =  9.12E-08,  avg # of iterations =  1.0

     negative rho (up, down):  2.898E-03 0.000E+00

     total cpu time spent up to now is    10268.9 secs

     total energy              =   -2891.30557791 Ry
     estimated scf accuracy    <       0.00008535 Ry

     iteration #  7     ecut=    40.00 Ry     beta= 0.30
     Davidson diagonalization with overlap
     ethr =  2.96E-08,  avg # of iterations =  1.8

     negative rho (up, down):  2.910E-03 0.000E+00

     total cpu time spent up to now is    10301.3 secs

     total energy              =   -2891.30558080 Ry
     estimated scf accuracy    <       0.00000775 Ry

     iteration #  8     ecut=    40.00 Ry     beta= 0.30
     Davidson diagonalization with overlap
     ethr =  2.69E-09,  avg # of iterations =  4.0

     negative rho (up, down):  2.920E-03 0.000E+00

     total cpu time spent up to now is    10344.3 secs

     total energy              =   -2891.30558108 Ry
     estimated scf accuracy    <       0.00001402 Ry

     iteration #  9     ecut=    40.00 Ry     beta= 0.30
     Davidson diagonalization with overlap
     ethr =  2.69E-09,  avg # of iterations =  1.0

     negative rho (up, down):  2.945E-03 0.000E+00

     total cpu time spent up to now is    10378.9 secs

     total energy              =   -2891.30558120 Ry
     estimated scf accuracy    <       0.00000559 Ry

     iteration # 10     ecut=    40.00 Ry     beta= 0.30
     Davidson diagonalization with overlap
     ethr =  1.94E-09,  avg # of iterations =  2.0

     negative rho (up, down):  2.925E-03 0.000E+00

     total cpu time spent up to now is    10415.9 secs

     total energy              =   -2891.30558109 Ry
     estimated scf accuracy    <       0.00000468 Ry

     iteration # 11     ecut=    40.00 Ry     beta= 0.30
     Davidson diagonalization with overlap
     ethr =  1.63E-09,  avg # of iterations =  1.0

     negative rho (up, down):  2.898E-03 0.000E+00

     total cpu time spent up to now is    10450.0 secs

     total energy              =   -2891.30558107 Ry
     estimated scf accuracy    <       0.00000086 Ry

     iteration # 12     ecut=    40.00 Ry     beta= 0.30
     Davidson diagonalization with overlap
     ethr =  2.99E-10,  avg # of iterations =  2.0

     negative rho (up, down):  2.856E-03 0.000E+00

     total cpu time spent up to now is    10489.5 secs

     total energy              =   -2891.30558106 Ry
     estimated scf accuracy    <       0.00000034 Ry

     iteration # 13     ecut=    40.00 Ry     beta= 0.30
     Davidson diagonalization with overlap
     ethr =  1.19E-10,  avg # of iterations =  2.5

     negative rho (up, down):  2.798E-03 0.000E+00

     total cpu time spent up to now is    10526.7 secs

     total energy              =   -2891.30558109 Ry
     estimated scf accuracy    <       0.00000020 Ry

     iteration # 14     ecut=    40.00 Ry     beta= 0.30
     Davidson diagonalization with overlap
     ethr =  6.93E-11,  avg # of iterations =  2.0

     negative rho (up, down):  2.769E-03 0.000E+00

     total cpu time spent up to now is    10563.4 secs

     total energy              =   -2891.30558108 Ry
     estimated scf accuracy    <       0.00000016 Ry

     iteration # 15     ecut=    40.00 Ry     beta= 0.30
     Davidson diagonalization with overlap
     ethr =  5.42E-11,  avg # of iterations =  1.0

     negative rho (up, down):  2.729E-03 0.000E+00

     total cpu time spent up to now is    10597.5 secs

     total energy              =   -2891.30558111 Ry
     estimated scf accuracy    <       0.00000017 Ry

     iteration # 16     ecut=    40.00 Ry     beta= 0.30
     Davidson diagonalization with overlap
     ethr =  5.42E-11,  avg # of iterations =  1.0

     negative rho (up, down):  2.614E-03 0.000E+00

     total cpu time spent up to now is    10629.6 secs

     End of self-consistent calculation

          k = 0.0000 0.0000 0.0000 ( 28285 PWs)   bands (ev):

   -20.1317 -19.7189 -19.4566 -19.4566 -19.4566 -19.2913 -19.1182 -19.1181
   -19.1181 -18.7334 -18.7334 -18.7334 -17.5833 -17.2030 -17.2030 -17.2030
    -8.6841  -8.4742  -8.4742  -8.4742  -8.2714  -8.2714  -8.2714  -8.2281
    -8.2281  -8.2281  -8.2027  -8.0735  -7.9980  -7.9980  -7.8864  -7.8864
    -7.8864  -7.8773  -7.8773  -7.8773  -7.8543  -7.8543  -7.7293  -7.6560
    -7.6560  -7.6560  -7.6024  -7.6024  -7.6024  -7.4618  -7.4618  -7.4618
    -7.4388  -7.4388  -7.2933  -7.2933  -7.2933  -7.2797  -7.2797  -7.2797
    -7.2384  -7.2384  -6.9993  -6.9993  -6.9993  -6.9553  -6.9552  -6.9552
    -6.9510  -6.9510  -6.6638  -6.6638  -6.6638  -6.5153  -6.5153  -6.5021
    -6.5021  -6.5021  -6.3732  -6.3732  -6.3732  -6.3722  -6.3722  -6.3722
    -6.1881  -6.1881  -6.1833  -6.1833  -6.1833  -6.1621  -6.1144  -6.1144
    -6.0966  -6.0966  -6.0965  -6.0300  -6.0300  -6.0300  -5.9516  -5.9516
    -5.9516  -5.9322  -5.9322  -5.9322  -5.7263  -5.6068  -5.6068  -5.6068
    -5.0673  -5.0673  -5.0673  -4.7359  -4.7359  -4.7359  -4.5442  -4.0401
    -4.0401  -4.0401  -3.6119  -3.6119  -3.6119  -3.6030  -3.6030  -3.6029
    -3.2523  -3.0572  -3.0572  -3.0572  -2.5684  -2.5684  -2.5684  -2.5161
    -2.5161  -2.4792  -2.4792  -2.4792  -2.1404  -2.1403  -2.1365  -2.1365
    -2.1365  -2.1168  -1.7880  -1.7880  -1.2976  -1.2976  -1.2976  -1.0382
    -1.0382  -0.7731  -0.7731  -0.7731  -0.3319  -0.3319  -0.3319  -0.1069
     1.3336   2.6669   3.5872   4.0258   4.0258   4.0258   4.0784   4.0784
     4.0784   4.7659   4.9475   4.9475   4.9475   5.6436   5.6842   5.6842
     5.6847   6.1648   6.5429   6.5429   6.5797

          k = 0.0000 0.2887 0.0000 ( 28254 PWs)   bands (ev):

   -20.0391 -19.6357 -19.5624 -19.4595 -19.4594 -19.2146 -19.2112 -19.1202
   -19.1202 -18.8207 -18.7350 -18.7350 -17.5301 -17.2614 -17.2034 -17.2034
    -8.5962  -8.4439  -8.4046  -8.4046  -8.2669  -8.2483  -8.2483  -8.2038
    -8.1778  -8.1778  -8.1230  -8.0309  -7.9510  -7.9300  -7.9300  -7.9232
    -7.8711  -7.8701  -7.8700  -7.8506  -7.7935  -7.7935  -7.7335  -7.7335
    -7.7083  -7.6564  -7.6257  -7.5629  -7.5629  -7.4759  -7.4758  -7.4361
    -7.4361  -7.4019  -7.3048  -7.3048  -7.2842  -7.2806  -7.2384  -7.2087
    -7.2087  -7.1907  -7.0302  -7.0112  -7.0112  -6.9960  -6.9823  -6.9258
    -6.9258  -6.9075  -6.7383  -6.7289  -6.7289  -6.7091  -6.6132  -6.6132
    -6.5397  -6.5130  -6.4143  -6.4063  -6.4063  -6.3567  -6.3183  -6.3183
    -6.2455  -6.2329  -6.2034  -6.2034  -6.1867  -6.1486  -6.1404  -6.1168
    -6.1076  -6.1076  -6.1034  -6.0788  -6.0358  -6.0358  -6.0144  -5.9207
    -5.9207  -5.8380  -5.8380  -5.7742  -5.6068  -5.4499  -5.4499  -5.4171
    -5.0736  -5.0558  -5.0558  -4.7841  -4.7654  -4.7653  -4.4759  -4.0685
    -4.0685  -4.0056  -3.9116  -3.9116  -3.5641  -3.5641  -3.4329  -3.3642
    -3.3419  -3.3228  -3.3228  -2.9961  -2.9121  -2.7786  -2.7786  -2.6642
    -2.6394  -2.4147  -2.4142  -2.4142  -2.3684  -2.3170  -2.2680  -2.2347
    -2.1097  -2.1097  -2.0832  -2.0265  -1.8810  -1.4628  -1.4628  -1.3597
    -1.3149  -1.3149  -1.2596  -1.0754   0.5711   0.9413   0.9413   1.8276
     2.0464   3.0158   3.1808   3.7774   3.9871   4.1211   4.1211   4.3778
     4.3778   4.7806   5.0204   5.2494   5.2494   5.2623   5.4975   5.4975
     5.9298   6.1877   6.1877   6.5582   6.7178

          k = 0.0000-0.5774 0.0000 ( 28240 PWs)   bands (ev):

   -19.8074 -19.8074 -19.4623 -19.4623 -19.4283 -19.4283 -19.1222 -19.1222
   -19.0230 -19.0229 -18.7367 -18.7366 -17.3984 -17.3984 -17.2039 -17.2038
    -8.4552  -8.4552  -8.3225  -8.3225  -8.2303  -8.2303  -8.2032  -8.2032
    -8.1212  -8.1212  -8.0907  -8.0907  -7.9736  -7.9736  -7.8604  -7.8604
    -7.8453  -7.8453  -7.8270  -7.8270  -7.8202  -7.8202  -7.6986  -7.6986
    -7.6779  -7.6779  -7.5285  -7.5285  -7.5100  -7.5100  -7.4707  -7.4707
    -7.3244  -7.3244  -7.3227  -7.3227  -7.3045  -7.3045  -7.1947  -7.1947
    -7.0793  -7.0793  -7.0789  -7.0788  -7.0365  -7.0364  -6.9903  -6.9903
    -6.9296  -6.9296  -6.8109  -6.8109  -6.8087  -6.8086  -6.5720  -6.5720
    -6.5397  -6.5397  -6.4826  -6.4825  -6.4411  -6.4411  -6.3606  -6.3606
    -6.3036  -6.3036  -6.2887  -6.2887  -6.1832  -6.1832  -6.1629  -6.1629
    -6.1517  -6.1517  -6.1016  -6.1016  -6.0372  -6.0372  -5.9954  -5.9954
    -5.8581  -5.8581  -5.7268  -5.7268  -5.2477  -5.2477  -5.2438  -5.2438
    -4.9080  -4.9080  -4.8450  -4.8450  -4.6296  -4.6295  -4.3266  -4.3266
    -4.1746  -4.1746  -4.0623  -4.0623  -3.8396  -3.8396  -3.5889  -3.5889
    -3.2803  -3.2803  -3.2675  -3.2675  -3.0852  -3.0851  -3.0344  -3.0344
    -2.6346  -2.6346  -2.5821  -2.5821  -2.2506  -2.2506  -2.1166  -2.1166
    -2.0858  -2.0858  -2.0365  -2.0365  -1.9380  -1.9380  -1.6793  -1.6793
    -1.4946  -1.4946  -1.1675  -1.1674   1.7897   1.7898   2.7123   2.7123
     2.7838   2.7839   3.5298   3.5299   3.6636   3.6637   4.2588   4.2588
     4.6628   4.6629   4.6752   4.6752   5.4414   5.4414   5.5452   5.5452
     5.8342   5.8342   6.2535   6.2537   6.8732

          k = 0.2500 0.4330 0.0000 ( 28256 PWs)   bands (ev):

   -19.8767 -19.6369 -19.6369 -19.4902 -19.3887 -19.2768 -19.2768 -19.0802
   -19.0573 -18.8819 -18.8819 -18.6752 -17.4375 -17.3023 -17.3023 -17.1624
    -8.4818  -8.3899  -8.3899  -8.2841  -8.2467  -8.2467  -8.2231  -8.1545
    -8.1211  -8.1211  -8.0959  -8.0523  -7.9833  -7.9304  -7.9114  -7.9114
    -7.8776  -7.8484  -7.8258  -7.8258  -7.8053  -7.7723  -7.7723  -7.6780
    -7.6761  -7.6191  -7.6191  -7.5439  -7.4952  -7.4720  -7.4720  -7.4572
    -7.3707  -7.3676  -7.3675  -7.3064  -7.2959  -7.2656  -7.1656  -7.1656
    -7.1225  -7.0966  -7.0679  -7.0679  -7.0398  -7.0398  -6.9964  -6.9924
    -6.8564  -6.8456  -6.8456  -6.7679  -6.7386  -6.7386  -6.7074  -6.5581
    -6.5345  -6.5002  -6.5002  -6.4911  -6.3959  -6.3959  -6.3664  -6.2967
    -6.2967  -6.2951  -6.2798  -6.2287  -6.1932  -6.1732  -6.1593  -6.1574
    -6.1574  -6.1277  -6.1277  -6.1169  -6.0787  -6.0497  -6.0497  -6.0477
    -5.9001  -5.8408  -5.8408  -5.7494  -5.5016  -5.3541  -5.0958  -5.0958
    -5.0791  -4.9182  -4.9182  -4.8792  -4.5242  -4.5242  -4.4813  -4.4039
    -4.2073  -4.0250  -4.0250  -3.7523  -3.7460  -3.6099  -3.5824  -3.5221
    -3.5221  -3.3398  -3.3398  -3.2850  -3.1433  -3.0103  -3.0103  -2.9253
    -2.6087  -2.5678  -2.5678  -2.5599  -2.4074  -2.4073  -2.2715  -2.1484
    -2.1437  -2.1436  -2.1010  -2.0385  -2.0385  -2.0204  -1.8514  -1.7129
    -1.3546  -1.3546  -1.1902   0.3753   0.4398   1.4745   2.5398   2.7636
     2.7636   2.8914   3.4366   3.4367   3.5248   3.7939   3.7939   4.5362
     4.8271   4.8271   5.0325   5.1732   5.1733   5.4177   5.4886   6.0958
     6.1445   6.4890   6.4891   6.5001   7.0431

     the Fermi energy is    -1.3888 ev

!    total energy              =   -2891.30558117 Ry
     estimated scf accuracy    <       0.00000010 Ry
     smearing contrib. (-TS)   =      -0.00561138 Ry
     internal energy E=F+TS    =   -2891.29996979 Ry

     The total energy is F=E-TS. E is the sum of the following terms:
     one-electron contribution =  -33578.62349093 Ry
     hartree contribution      =   17022.72790185 Ry
     xc contribution           =    -874.27668954 Ry
     ewald contribution        =   14538.87230883 Ry

     convergence has been achieved in  16 iterations

     negative rho (up, down):  2.614E-03 0.000E+00

     Forces acting on atoms (cartesian axes, Ry/au):

     atom    1 type  1   force =     0.00000000    0.00000050   -0.00003369
     atom    2 type  1   force =     0.00000043   -0.00000025   -0.00003369
     atom    3 type  1   force =     0.00000000   -0.00000000   -0.00003626
     atom    4 type  1   force =    -0.00000043   -0.00000025   -0.00003369
     atom    5 type  2   force =     0.00000000    0.00000048    0.00018376
     atom    6 type  2   force =     0.00000042   -0.00000024    0.00018376
     atom    7 type  2   force =     0.00000000    0.00000000    0.00018363
     atom    8 type  2   force =    -0.00000042   -0.00000024    0.00018376
     atom    9 type  1   force =    -0.00000065   -0.00000038    0.00090866
     atom   10 type  1   force =     0.00000000    0.00000000    0.00090943
     atom   11 type  1   force =     0.00000065   -0.00000038    0.00090866
     atom   12 type  1   force =     0.00000000    0.00000076    0.00090866
     atom   13 type  2   force =     0.00000159    0.00000092   -0.00284089
     atom   14 type  2   force =     0.00000000   -0.00000000   -0.00283863
     atom   15 type  2   force =    -0.00000159    0.00000092   -0.00284089
     atom   16 type  2   force =     0.00000000   -0.00000183   -0.00284089
     atom   17 type  1   force =     0.00000000   -0.00000573    0.00541076
     atom   18 type  1   force =    -0.00000496    0.00000287    0.00541076
     atom   19 type  1   force =     0.00000000    0.00000000    0.00542118
     atom   20 type  1   force =     0.00000496    0.00000287    0.00541076
     atom   21 type  2   force =     0.00000000   -0.00000301   -0.00206056
     atom   22 type  2   force =    -0.00000260    0.00000150   -0.00206056
     atom   23 type  2   force =     0.00000000    0.00000000   -0.00205895
     atom   24 type  2   force =     0.00000260    0.00000150   -0.00206056
     atom   25 type  1   force =    -0.00000170   -0.00000098    0.00570080
     atom   26 type  1   force =     0.00000000   -0.00000000    0.00562693
     atom   27 type  1   force =     0.00000170   -0.00000098    0.00570080
     atom   28 type  1   force =     0.00000000    0.00000196    0.00570080
     atom   29 type  2   force =    -0.00000501   -0.00000289   -0.00725736
     atom   30 type  2   force =     0.00000000   -0.00000000   -0.00724181
     atom   31 type  2   force =     0.00000501   -0.00000289   -0.00725736
     atom   32 type  2   force =     0.00000000    0.00000578   -0.00725736

     Total force =     0.022573     Total SCF correction =     0.001847
     Energy error            =      1.2E-03 Ry
     Gradient error          =      7.3E-03 Ry/Bohr

     number of scf cycles    =  10
     number of bfgs steps    =   9

     energy             old  =   -2891.3043406519 Ry
     energy             new  =   -2891.3055811659 Ry

     CASE: energy            _new < energy            _old

     new trust radius        =       0.0254001409 bohr
     new conv_thr            =       0.0000000726 Ry


ATOMIC_POSITIONS (angstrom)
Zn              -0.0000020000        1.7729483504       -0.5677553374
Zn              -1.5353843760        4.4323088248       -0.5677553374
Zn               3.0707980000        1.7729280000       -0.5677462737
Zn               1.5353803760        4.4323088248       -0.5677553374
O               -0.0000020000        1.7729251624        1.3916967294
O               -1.5354044574        4.4323204188        1.3916967294
O                3.0707980000        1.7729280000        1.3917057726
O                1.5354004574        4.4323204188        1.3916967294
Zn               1.5353993268        0.8864614566        2.2547187957
Zn               0.0000020000        3.5458540000        2.2547089292
Zn               4.6062046732        0.8864614566        2.2547187957
Zn               3.0708020000        3.5458570868        2.2547187957
O                1.5353934424        0.8864580593        4.1881385008
O                0.0000020000        3.5458540000        4.1881263120
O                4.6062105576        0.8864580593        4.1881385008
O                3.0708020000        3.5458638815        4.1881385008
Zn              -0.0000020000        1.7729346973        5.0634160395
Zn              -1.5353962000        4.4323156514        5.0634160395
Zn               3.0707980000        1.7729280000        5.0633891017
Zn               1.5353922000        4.4323156514        5.0634160395
O               -0.0000020000        1.7729249681        6.9948599722
O               -1.5354046257        4.4323205159        6.9948599722
O                3.0707980000        1.7729280000        6.9948491232
O                1.5354006257        4.4323205159        6.9948599722
Zn               1.5354043375        0.8864643496        7.9269302911
Zn               0.0000020000        3.5458540000        7.9268569749
Zn               4.6061996625        0.8864643496        7.9269302911
Zn               3.0708020000        3.5458513009        7.9269302911
O                1.5353607623        0.8864391914        9.7684726869
O                0.0000020000        3.5458540000        9.7684530252
O                4.6062432377        0.8864391914        9.7684726869
O                3.0708020000        3.5459016172        9.7684726869



     Writing config-only to output data dir ./tmp/zno_slab_pure.save/ :
     XML data file
     NEW-OLD atomic charge density approx. for the potential

     Check: negative core charge=   -0.000001

     negative rho (up, down):  2.654E-03 0.000E+00

     total cpu time spent up to now is    10639.5 secs

     per-process dynamical memory:   877.7 Mb

     Self-consistent Calculation

     iteration #  1     ecut=    40.00 Ry     beta= 0.30
     Davidson diagonalization with overlap
     ethr =  1.00E-06,  avg # of iterations =  6.8

     negative rho (up, down):  2.657E-03 0.000E+00

     total cpu time spent up to now is    10696.9 secs

     total energy              =   -2891.30472088 Ry
     estimated scf accuracy    <       0.05754151 Ry

     iteration #  2     ecut=    40.00 Ry     beta= 0.30
     Davidson diagonalization with overlap
     ethr =  2.00E-05,  avg # of iterations =  1.0

     negative rho (up, down):  2.642E-03 0.000E+00

     total cpu time spent up to now is    10726.2 secs

     total energy              =   -2891.30556706 Ry
     estimated scf accuracy    <       0.06747474 Ry

     iteration #  3     ecut=    40.00 Ry     beta= 0.30
     Davidson diagonalization with overlap
     ethr =  2.00E-05,  avg # of iterations =  1.0

     negative rho (up, down):  2.639E-03 0.000E+00

     total cpu time spent up to now is    10755.5 secs

     total energy              =   -2891.30603229 Ry
     estimated scf accuracy    <       0.00017909 Ry

     iteration #  4     ecut=    40.00 Ry     beta= 0.30
     Davidson diagonalization with overlap
     ethr =  6.22E-08,  avg # of iterations =  4.0

     negative rho (up, down):  2.635E-03 0.000E+00

     total cpu time spent up to now is    10788.3 secs

     total energy              =   -2891.30603316 Ry
     estimated scf accuracy    <       0.00021601 Ry

     iteration #  5     ecut=    40.00 Ry     beta= 0.30
     Davidson diagonalization with overlap
     ethr =  6.22E-08,  avg # of iterations =  1.2

     negative rho (up, down):  2.665E-03 0.000E+00

     total cpu time spent up to now is    10821.4 secs

     total energy              =   -2891.30603259 Ry
     estimated scf accuracy    <       0.00013117 Ry

     iteration #  6     ecut=    40.00 Ry     beta= 0.30
     Davidson diagonalization with overlap
     ethr =  4.55E-08,  avg # of iterations =  1.0

     negative rho (up, down):  2.670E-03 0.000E+00

     total cpu time spent up to now is    10861.8 secs

     total energy              =   -2891.30603319 Ry
     estimated scf accuracy    <       0.00002735 Ry

     iteration #  7     ecut=    40.00 Ry     beta= 0.30
     Davidson diagonalization with overlap
     ethr =  9.50E-09,  avg # of iterations =  2.0

     negative rho (up, down):  2.671E-03 0.000E+00

     total cpu time spent up to now is    10961.3 secs

     total energy              =   -2891.30603423 Ry
     estimated scf accuracy    <       0.00001107 Ry

     iteration #  8     ecut=    40.00 Ry     beta= 0.30
     Davidson diagonalization with overlap
     ethr =  3.84E-09,  avg # of iterations =  2.0

     negative rho (up, down):  2.674E-03 0.000E+00

     total cpu time spent up to now is    10993.8 secs

     total energy              =   -2891.30603465 Ry
     estimated scf accuracy    <       0.00000074 Ry

     iteration #  9     ecut=    40.00 Ry     beta= 0.30
     Davidson diagonalization with overlap
     ethr =  2.57E-10,  avg # of iterations =  4.5

     negative rho (up, down):  2.675E-03 0.000E+00

     total cpu time spent up to now is    11037.7 secs

     total energy              =   -2891.30603498 Ry
     estimated scf accuracy    <       0.00000032 Ry

     iteration # 10     ecut=    40.00 Ry     beta= 0.30
     Davidson diagonalization with overlap
     ethr =  1.10E-10,  avg # of iterations =  2.0

     negative rho (up, down):  2.672E-03 0.000E+00

     total cpu time spent up to now is    11069.3 secs

     total energy              =   -2891.30603495 Ry
     estimated scf accuracy    <       0.00000014 Ry

     iteration # 11     ecut=    40.00 Ry     beta= 0.30
     Davidson diagonalization with overlap
     ethr =  4.96E-11,  avg # of iterations =  2.0

     negative rho (up, down):  2.626E-03 0.000E+00

     total cpu time spent up to now is    11099.3 secs

     End of self-consistent calculation

          k = 0.0000 0.0000 0.0000 ( 28285 PWs)   bands (ev):

   -20.1548 -19.7194 -19.4842 -19.4841 -19.4841 -19.3165 -19.1082 -19.1082
   -19.1082 -18.7646 -18.7646 -18.7646 -17.6094 -17.2303 -17.2303 -17.2301
    -8.7044  -8.4937  -8.4937  -8.4937  -8.2830  -8.2830  -8.2830  -8.2393
    -8.2393  -8.2393  -8.2105  -8.0765  -8.0044  -8.0044  -7.8885  -7.8885
    -7.8885  -7.8847  -7.8847  -7.8847  -7.8670  -7.8670  -7.7573  -7.6622
    -7.6622  -7.6622  -7.6141  -7.6141  -7.6141  -7.4807  -7.4807  -7.4807
    -7.4452  -7.4452  -7.3053  -7.3052  -7.3052  -7.2851  -7.2850  -7.2850
    -7.2347  -7.2347  -7.0184  -7.0184  -7.0184  -6.9727  -6.9726  -6.9679
    -6.9679  -6.9679  -6.6775  -6.6775  -6.6775  -6.5197  -6.5197  -6.5082
    -6.5082  -6.5082  -6.3908  -6.3908  -6.3908  -6.3776  -6.3776  -6.3776
    -6.2016  -6.2016  -6.1990  -6.1990  -6.1990  -6.1743  -6.1312  -6.1312
    -6.1174  -6.1174  -6.1174  -6.0362  -6.0362  -6.0362  -5.9713  -5.9713
    -5.9713  -5.9445  -5.9445  -5.9445  -5.7386  -5.6146  -5.6146  -5.6146
    -5.0718  -5.0718  -5.0718  -4.7469  -4.7469  -4.7469  -4.5481  -4.0460
    -4.0460  -4.0460  -3.6267  -3.6267  -3.6267  -3.6120  -3.6119  -3.6119
    -3.2505  -3.0764  -3.0764  -3.0764  -2.5679  -2.5679  -2.5679  -2.5304
    -2.5303  -2.4856  -2.4856  -2.4856  -2.1563  -2.1563  -2.1381  -2.1381
    -2.1381  -2.1174  -1.7993  -1.7992  -1.2984  -1.2984  -1.2984  -1.0414
    -1.0414  -0.7746  -0.7746  -0.7746  -0.3301  -0.3301  -0.3301  -0.0991
     1.3375   2.6796   3.5930   4.0275   4.0276   4.0276   4.0833   4.0833
     4.0833   4.7720   4.9497   4.9497   4.9497   5.6485   5.6996   5.6996
     5.6999   6.1748   6.5577   6.5578   6.5824

          k = 0.0000 0.2887 0.0000 ( 28254 PWs)   bands (ev):

   -20.0627 -19.6350 -19.5890 -19.4869 -19.4869 -19.2405 -19.2033 -19.1104
   -19.1104 -18.8508 -18.7662 -18.7661 -17.5564 -17.2884 -17.2307 -17.2306
    -8.6162  -8.4626  -8.4233  -8.4233  -8.2816  -8.2639  -8.2639  -8.2119
    -8.1857  -8.1857  -8.1328  -8.0374  -7.9575  -7.9402  -7.9402  -7.9277
    -7.8813  -7.8798  -7.8714  -7.8628  -7.7943  -7.7943  -7.7398  -7.7398
    -7.7145  -7.6822  -7.6380  -7.5741  -7.5741  -7.4893  -7.4825  -7.4520
    -7.4520  -7.4083  -7.3125  -7.3125  -7.2895  -7.2801  -7.2497  -7.2209
    -7.2209  -7.1884  -7.0524  -7.0289  -7.0289  -7.0168  -6.9922  -6.9386
    -6.9386  -6.9289  -6.7448  -6.7419  -6.7418  -6.7246  -6.6209  -6.6209
    -6.5440  -6.5172  -6.4184  -6.4128  -6.4128  -6.3737  -6.3370  -6.3370
    -6.2670  -6.2484  -6.2261  -6.2261  -6.1999  -6.1656  -6.1533  -6.1336
    -6.1212  -6.1212  -6.1180  -6.0852  -6.0436  -6.0436  -6.0349  -5.9362
    -5.9362  -5.8486  -5.8485  -5.7849  -5.6157  -5.4567  -5.4567  -5.4254
    -5.0851  -5.0651  -5.0651  -4.7930  -4.7760  -4.7760  -4.4799  -4.0776
    -4.0775  -4.0133  -3.9244  -3.9244  -3.5748  -3.5748  -3.4475  -3.3690
    -3.3441  -3.3369  -3.3369  -3.0064  -2.9308  -2.7844  -2.7844  -2.6785
    -2.6546  -2.4152  -2.4144  -2.4144  -2.3755  -2.3256  -2.2845  -2.2343
    -2.1112  -2.1112  -2.0840  -2.0267  -1.8915  -1.4635  -1.4635  -1.3630
    -1.3145  -1.3145  -1.2607  -1.0783   0.5784   0.9405   0.9405   1.8317
     2.0452   3.0298   3.1860   3.7799   3.9954   4.1281   4.1281   4.3771
     4.3771   4.7960   5.0266   5.2583   5.2583   5.2767   5.5042   5.5042
     5.9330   6.1927   6.1927   6.5649   6.7240

          k = 0.0000-0.5774 0.0000 ( 28240 PWs)   bands (ev):

   -19.8322 -19.8322 -19.4897 -19.4897 -19.4245 -19.4244 -19.1125 -19.1125
   -19.0507 -19.0507 -18.7677 -18.7677 -17.4251 -17.4250 -17.2311 -17.2310
    -8.4740  -8.4740  -8.3403  -8.3403  -8.2469  -8.2469  -8.2176  -8.2176
    -8.1284  -8.1284  -8.0995  -8.0995  -7.9831  -7.9831  -7.8716  -7.8716
    -7.8518  -7.8518  -7.8338  -7.8338  -7.8234  -7.8234  -7.6994  -7.6994
    -7.6876  -7.6876  -7.5411  -7.5411  -7.5213  -7.5213  -7.4835  -7.4835
    -7.3344  -7.3344  -7.3304  -7.3304  -7.3134  -7.3133  -7.2064  -7.2064
    -7.0987  -7.0987  -7.0817  -7.0817  -7.0460  -7.0460  -7.0071  -7.0071
    -6.9376  -6.9376  -6.8310  -6.8310  -6.8282  -6.8282  -6.5768  -6.5768
    -6.5445  -6.5445  -6.4863  -6.4863  -6.4473  -6.4473  -6.3792  -6.3792
    -6.3242  -6.3241  -6.3107  -6.3107  -6.1977  -6.1976  -6.1785  -6.1785
    -6.1615  -6.1615  -6.1207  -6.1206  -6.0549  -6.0549  -6.0044  -6.0044
    -5.8720  -5.8720  -5.7373  -5.7373  -5.2543  -5.2543  -5.2482  -5.2482
    -4.9218  -4.9218  -4.8573  -4.8573  -4.6385  -4.6385  -4.3372  -4.3372
    -4.1835  -4.1835  -4.0769  -4.0769  -3.8518  -3.8518  -3.5937  -3.5937
    -3.2929  -3.2929  -3.2727  -3.2727  -3.0922  -3.0922  -3.0489  -3.0489
    -2.6353  -2.6353  -2.5998  -2.5998  -2.2507  -2.2506  -2.1253  -2.1253
    -2.0872  -2.0872  -2.0370  -2.0369  -1.9401  -1.9401  -1.6797  -1.6797
    -1.4940  -1.4940  -1.1694  -1.1694   1.7976   1.7976   2.7116   2.7116
     2.7872   2.7873   3.5250   3.5250   3.6783   3.6784   4.2667   4.2667
     4.6602   4.6602   4.6909   4.6910   5.4634   5.4634   5.5436   5.5437
     5.8431   5.8431   6.2558   6.2559   6.8744

          k = 0.2500 0.4330 0.0000 ( 28256 PWs)   bands (ev):

   -19.9012 -19.6630 -19.6630 -19.4873 -19.4168 -19.2702 -19.2702 -19.1074
   -19.0462 -18.9112 -18.9112 -18.7070 -17.4641 -17.3293 -17.3292 -17.1897
    -8.5009  -8.4082  -8.4082  -8.3016  -8.2626  -8.2626  -8.2395  -8.1686
    -8.1282  -8.1282  -8.1068  -8.0590  -7.9916  -7.9371  -7.9216  -7.9216
    -7.8881  -7.8547  -7.8321  -7.8321  -7.8114  -7.7747  -7.7747  -7.6856
    -7.6803  -7.6311  -7.6311  -7.5522  -7.5014  -7.4815  -7.4815  -7.4726
    -7.3897  -7.3773  -7.3773  -7.3137  -7.3089  -7.2717  -7.1736  -7.1736
    -7.1256  -7.1065  -7.0883  -7.0883  -7.0481  -7.0481  -7.0136  -7.0072
    -6.8769  -6.8617  -6.8617  -6.7801  -6.7489  -6.7488  -6.7208  -6.5625
    -6.5391  -6.5050  -6.5050  -6.4950  -6.4069  -6.4068  -6.3780  -6.3174
    -6.3174  -6.3132  -6.2978  -6.2524  -6.2111  -6.1891  -6.1726  -6.1726
    -6.1703  -6.1384  -6.1384  -6.1336  -6.0934  -6.0663  -6.0663  -6.0651
    -5.9072  -5.8536  -5.8536  -5.7600  -5.5022  -5.3607  -5.1047  -5.1047
    -5.0898  -4.9282  -4.9282  -4.8929  -4.5347  -4.5347  -4.4877  -4.4172
    -4.2264  -4.0335  -4.0335  -3.7547  -3.7543  -3.6162  -3.5913  -3.5341
    -3.5341  -3.3491  -3.3491  -3.2929  -3.1592  -3.0254  -3.0253  -2.9378
    -2.6161  -2.5732  -2.5732  -2.5723  -2.4081  -2.4081  -2.2711  -2.1560
    -2.1460  -2.1460  -2.1031  -2.0390  -2.0389  -2.0205  -1.8509  -1.7162
    -1.3560  -1.3560  -1.1925   0.3728   0.4412   1.4823   2.5438   2.7717
     2.7717   2.8881   3.4355   3.4356   3.5406   3.7998   3.7998   4.5500
     4.8433   4.8434   5.0324   5.1843   5.1843   5.4208   5.4922   6.0986
     6.1584   6.4850   6.4851   6.5000   7.0446

     the Fermi energy is    -1.3897 ev

!    total energy              =   -2891.30603502 Ry
     estimated scf accuracy    <       0.00000004 Ry
     smearing contrib. (-TS)   =      -0.00566891 Ry
     internal energy E=F+TS    =   -2891.30036611 Ry

     The total energy is F=E-TS. E is the sum of the following terms:
     one-electron contribution =  -33638.73851957 Ry
     hartree contribution      =   17052.71005819 Ry
     xc contribution           =    -874.31083498 Ry
     ewald contribution        =   14569.03893026 Ry

     convergence has been achieved in  11 iterations

     negative rho (up, down):  2.626E-03 0.000E+00

     Forces acting on atoms (cartesian axes, Ry/au):

     atom    1 type  1   force =     0.00000000    0.00000060   -0.00201779
     atom    2 type  1   force =     0.00000052   -0.00000030   -0.00201779
     atom    3 type  1   force =     0.00000000    0.00000000   -0.00201792
     atom    4 type  1   force =    -0.00000052   -0.00000030   -0.00201779
     atom    5 type  2   force =     0.00000000    0.00000035    0.00056641
     atom    6 type  2   force =     0.00000030   -0.00000018    0.00056641
     atom    7 type  2   force =     0.00000000    0.00000000    0.00056841
     atom    8 type  2   force =    -0.00000030   -0.00000018    0.00056641
     atom    9 type  1   force =    -0.00000093   -0.00000054    0.00143487
     atom   10 type  1   force =     0.00000000   -0.00000000    0.00143315
     atom   11 type  1   force =     0.00000093   -0.00000054    0.00143487
     atom   12 type  1   force =     0.00000000    0.00000108    0.00143487
     atom   13 type  2   force =     0.00000204    0.00000118   -0.00087825
     atom   14 type  2   force =     0.00000000    0.00000000   -0.00087356
     atom   15 type  2   force =    -0.00000204    0.00000118   -0.00087825
     atom   16 type  2   force =     0.00000000   -0.00000236   -0.00087825
     atom   17 type  1   force =     0.00000000   -0.00000149    0.00164560
     atom   18 type  1   force =    -0.00000129    0.00000075    0.00164560
     atom   19 type  1   force =     0.00000000    0.00000000    0.00165330
     atom   20 type  1   force =     0.00000129    0.00000075    0.00164560
     atom   21 type  2   force =     0.00000000   -0.00000359   -0.00143179
     atom   22 type  2   force =    -0.00000311    0.00000179   -0.00143179
     atom   23 type  2   force =     0.00000000    0.00000000   -0.00142680
     atom   24 type  2   force =     0.00000311    0.00000179   -0.00143179
     atom   25 type  1   force =     0.00000078    0.00000045    0.00226911
     atom   26 type  1   force =     0.00000000   -0.00000000    0.00234758
     atom   27 type  1   force =    -0.00000078    0.00000045    0.00226911
     atom   28 type  1   force =     0.00000000   -0.00000090    0.00226911
     atom   29 type  2   force =    -0.00000767   -0.00000443   -0.00159696
     atom   30 type  2   force =     0.00000000    0.00000000   -0.00165771
     atom   31 type  2   force =     0.00000767   -0.00000443   -0.00159696
     atom   32 type  2   force =     0.00000000    0.00000886   -0.00159696

     Total force =     0.008904     Total SCF correction =     0.001222
     SCF correction compared to forces is large: reduce conv_thr to get better values
     Energy error            =      4.5E-04 Ry
     Gradient error          =      2.3E-03 Ry/Bohr

     number of scf cycles    =  11
     number of bfgs steps    =  10

     energy             old  =   -2891.3055811659 Ry
     energy             new  =   -2891.3060350243 Ry

     CASE: energy            _new < energy            _old

     new trust radius        =       0.0060873312 bohr
     new conv_thr            =       0.0000000235 Ry


ATOMIC_POSITIONS (angstrom)
Zn              -0.0000020000        1.7729487373       -0.5704185567
Zn              -1.5353840409        4.4323086313       -0.5704185567
Zn               3.0707980000        1.7729280000       -0.5704096705
Zn               1.5353800409        4.4323086313       -0.5704185567
O               -0.0000020000        1.7729255151        1.3902682449
O               -1.5354041520        4.4323202424        1.3902682449
O                3.0707980000        1.7729280000        1.3902787593
O                1.5354001520        4.4323202424        1.3902682449
Zn               1.5353987346        0.8864611147        2.2550441801
Zn               0.0000020000        3.5458540000        2.2550330700
Zn               4.6062052654        0.8864611147        2.2550441801
Zn               3.0708020000        3.5458577706        2.2550441801
O                1.5353946229        0.8864587408        4.1871401394
O                0.0000020000        3.5458540000        4.1871309431
O                4.6062093771        0.8864587408        4.1871401394
O                3.0708020000        3.5458625184        4.1871401394
Zn              -0.0000020000        1.7729333849        5.0648595002
Zn              -1.5353973365        4.4323163075        5.0648595002
Zn               3.0707980000        1.7729280000        5.0648376602
Zn               1.5353933365        4.4323163075        5.0648595002
O               -0.0000020000        1.7729224038        6.9945879669
O               -1.5354068465        4.4323217981        6.9945879669
O                3.0707980000        1.7729280000        6.9945798778
O                1.5354028465        4.4323217981        6.9945879669
Zn               1.5354043639        0.8864643648        7.9301062769
Zn               0.0000020000        3.5458540000        7.9300782519
Zn               4.6061996361        0.8864643648        7.9301062769
Zn               3.0708020000        3.5458512704        7.9301062769
O                1.5353557997        0.8864363263        9.7688845205
O                0.0000020000        3.5458540000        9.7688302913
O                4.6062482003        0.8864363263        9.7688845205
O                3.0708020000        3.5459073475        9.7688845205



     Writing config-only to output data dir ./tmp/zno_slab_pure.save/ :
     XML data file
     NEW-OLD atomic charge density approx. for the potential

     Check: negative core charge=   -0.000001

     negative rho (up, down):  2.617E-03 0.000E+00

     total cpu time spent up to now is    11108.4 secs

     per-process dynamical memory:   877.7 Mb

     Self-consistent Calculation

     iteration #  1     ecut=    40.00 Ry     beta= 0.30
     Davidson diagonalization with overlap
     ethr =  1.00E-06,  avg # of iterations =  3.0

     Threshold (ethr) on eigenvalues was too large:
     Diagonalizing with lowered threshold

     Davidson diagonalization with overlap
     ethr =  2.44E-08,  avg # of iterations =  4.2

     negative rho (up, down):  2.610E-03 0.000E+00

     total cpu time spent up to now is    11193.2 secs

     total energy              =   -2891.30610179 Ry
     estimated scf accuracy    <       0.00007735 Ry

     iteration #  2     ecut=    40.00 Ry     beta= 0.30
     Davidson diagonalization with overlap
     ethr =  2.69E-08,  avg # of iterations =  1.0

     negative rho (up, down):  2.607E-03 0.000E+00

     total cpu time spent up to now is    11223.0 secs

     total energy              =   -2891.30610559 Ry
     estimated scf accuracy    <       0.00039507 Ry

     iteration #  3     ecut=    40.00 Ry     beta= 0.30
     Davidson diagonalization with overlap
     ethr =  2.69E-08,  avg # of iterations =  1.0

     negative rho (up, down):  2.605E-03 0.000E+00

     total cpu time spent up to now is    11252.9 secs

     total energy              =   -2891.30610630 Ry
     estimated scf accuracy    <       0.00014291 Ry

     iteration #  4     ecut=    40.00 Ry     beta= 0.30
     Davidson diagonalization with overlap
     ethr =  2.69E-08,  avg # of iterations =  1.0

     negative rho (up, down):  2.586E-03 0.000E+00

     total cpu time spent up to now is    11283.6 secs

     total energy              =   -2891.30610193 Ry
     estimated scf accuracy    <       0.00015049 Ry

     iteration #  5     ecut=    40.00 Ry     beta= 0.30
     Davidson diagonalization with overlap
     ethr =  2.69E-08,  avg # of iterations =  1.0

     negative rho (up, down):  2.569E-03 0.000E+00

     total cpu time spent up to now is    11313.4 secs

     total energy              =   -2891.30610272 Ry
     estimated scf accuracy    <       0.00001149 Ry

     iteration #  6     ecut=    40.00 Ry     beta= 0.30
     Davidson diagonalization with overlap
     ethr =  3.99E-09,  avg # of iterations =  1.0

     negative rho (up, down):  2.560E-03 0.000E+00

     total cpu time spent up to now is    11343.0 secs

     total energy              =   -2891.30610271 Ry
     estimated scf accuracy    <       0.00000787 Ry

     iteration #  7     ecut=    40.00 Ry     beta= 0.30
     Davidson diagonalization with overlap
     ethr =  2.73E-09,  avg # of iterations =  1.2

     negative rho (up, down):  2.559E-03 0.000E+00

     total cpu time spent up to now is    11372.8 secs

     total energy              =   -2891.30610260 Ry
     estimated scf accuracy    <       0.00000164 Ry

     iteration #  8     ecut=    40.00 Ry     beta= 0.30
     Davidson diagonalization with overlap
     ethr =  5.71E-10,  avg # of iterations =  1.8

     negative rho (up, down):  2.559E-03 0.000E+00

     total cpu time spent up to now is    11403.7 secs

     total energy              =   -2891.30610269 Ry
     estimated scf accuracy    <       0.00000028 Ry

     iteration #  9     ecut=    40.00 Ry     beta= 0.30
     Davidson diagonalization with overlap
     ethr =  9.81E-11,  avg # of iterations =  4.2

     negative rho (up, down):  2.562E-03 0.000E+00

     total cpu time spent up to now is    11438.1 secs

     total energy              =   -2891.30610271 Ry
     estimated scf accuracy    <       0.00000017 Ry

     iteration # 10     ecut=    40.00 Ry     beta= 0.30
     Davidson diagonalization with overlap
     ethr =  6.01E-11,  avg # of iterations =  2.0

     negative rho (up, down):  2.564E-03 0.000E+00

     total cpu time spent up to now is    11470.3 secs

     total energy              =   -2891.30610271 Ry
     estimated scf accuracy    <       0.00000009 Ry

     iteration # 11     ecut=    40.00 Ry     beta= 0.30
     Davidson diagonalization with overlap
     ethr =  2.98E-11,  avg # of iterations =  2.0

     negative rho (up, down):  2.571E-03 0.000E+00

     total cpu time spent up to now is    11502.2 secs

     total energy              =   -2891.30610269 Ry
     estimated scf accuracy    <       0.00000007 Ry

     iteration # 12     ecut=    40.00 Ry     beta= 0.30
     Davidson diagonalization with overlap
     ethr =  2.33E-11,  avg # of iterations =  2.0

     negative rho (up, down):  2.575E-03 0.000E+00

     total cpu time spent up to now is    11533.3 secs

     total energy              =   -2891.30610268 Ry
     estimated scf accuracy    <       0.00000003 Ry

     iteration # 13     ecut=    40.00 Ry     beta= 0.30
     Davidson diagonalization with overlap
     ethr =  9.12E-12,  avg # of iterations =  2.0

     negative rho (up, down):  2.623E-03 0.000E+00

     total cpu time spent up to now is    11563.1 secs

     End of self-consistent calculation

          k = 0.0000 0.0000 0.0000 ( 28285 PWs)   bands (ev):

   -20.1411 -19.7106 -19.4697 -19.4697 -19.4697 -19.3126 -19.0994 -19.0994
   -19.0994 -18.7617 -18.7617 -18.7617 -17.6189 -17.2400 -17.2399 -17.2399
    -8.6956  -8.4857  -8.4857  -8.4857  -8.2818  -8.2818  -8.2818  -8.2378
    -8.2378  -8.2378  -8.2096  -8.0734  -8.0061  -8.0061  -7.8868  -7.8868
    -7.8868  -7.8784  -7.8784  -7.8784  -7.8629  -7.8629  -7.7605  -7.6640
    -7.6640  -7.6640  -7.6123  -7.6123  -7.6123  -7.4792  -7.4792  -7.4792
    -7.4386  -7.4386  -7.3023  -7.3023  -7.3023  -7.2785  -7.2784  -7.2784
    -7.2270  -7.2270  -7.0202  -7.0202  -7.0202  -6.9721  -6.9720  -6.9644
    -6.9644  -6.9644  -6.6764  -6.6764  -6.6764  -6.5125  -6.5125  -6.5033
    -6.5033  -6.5033  -6.3944  -6.3944  -6.3944  -6.3705  -6.3705  -6.3705
    -6.2051  -6.2051  -6.2002  -6.2002  -6.2002  -6.1779  -6.1350  -6.1350
    -6.1212  -6.1212  -6.1212  -6.0346  -6.0346  -6.0346  -5.9787  -5.9787
    -5.9787  -5.9472  -5.9472  -5.9472  -5.7446  -5.6083  -5.6083  -5.6083
    -5.0654  -5.0654  -5.0653  -4.7411  -4.7411  -4.7411  -4.5504  -4.0433
    -4.0433  -4.0433  -3.6197  -3.6197  -3.6197  -3.6124  -3.6124  -3.6124
    -3.2509  -3.0725  -3.0725  -3.0725  -2.5689  -2.5689  -2.5689  -2.5241
    -2.5241  -2.4807  -2.4807  -2.4807  -2.1564  -2.1564  -2.1431  -2.1431
    -2.1430  -2.1215  -1.7990  -1.7990  -1.3005  -1.3005  -1.3005  -1.0443
    -1.0443  -0.7761  -0.7761  -0.7761  -0.3329  -0.3329  -0.3328  -0.0958
     1.3382   2.6783   3.5936   4.0287   4.0287   4.0287   4.0847   4.0847
     4.0847   4.7697   4.9491   4.9491   4.9491   5.6484   5.6949   5.6949
     5.6950   6.1765   6.5542   6.5542   6.5821

          k = 0.0000 0.2887 0.0000 ( 28254 PWs)   bands (ev):

   -20.0489 -19.6262 -19.5748 -19.4725 -19.4725 -19.2367 -19.1945 -19.1016
   -19.1016 -18.8478 -18.7633 -18.7633 -17.5659 -17.2981 -17.2404 -17.2403
    -8.6083  -8.4547  -8.4160  -8.4160  -8.2782  -8.2604  -8.2604  -8.2122
    -8.1862  -8.1862  -8.1293  -8.0376  -7.9591  -7.9377  -7.9377  -7.9252
    -7.8795  -7.8773  -7.8661  -7.8595  -7.7895  -7.7895  -7.7415  -7.7415
    -7.7163  -7.6847  -7.6363  -7.5723  -7.5723  -7.4866  -7.4767  -7.4503
    -7.4503  -7.4012  -7.3071  -7.3071  -7.2826  -7.2731  -7.2455  -7.2167
    -7.2167  -7.1810  -7.0540  -7.0296  -7.0296  -7.0157  -6.9877  -6.9351
    -6.9351  -6.9283  -6.7396  -6.7389  -6.7389  -6.7236  -6.6175  -6.6175
    -6.5371  -6.5100  -6.4114  -6.4090  -6.4090  -6.3778  -6.3412  -6.3412
    -6.2729  -6.2527  -6.2331  -6.2331  -6.2034  -6.1701  -6.1551  -6.1375
    -6.1239  -6.1239  -6.1219  -6.0838  -6.0425  -6.0413  -6.0413  -5.9390
    -5.9390  -5.8452  -5.8452  -5.7809  -5.6198  -5.4531  -5.4530  -5.4216
    -5.0835  -5.0606  -5.0606  -4.7896  -4.7705  -4.7705  -4.4819  -4.0731
    -4.0731  -4.0121  -3.9199  -3.9199  -3.5718  -3.5717  -3.4408  -3.3679
    -3.3434  -3.3345  -3.3345  -3.0016  -2.9277  -2.7803  -2.7803  -2.6722
    -2.6543  -2.4171  -2.4152  -2.4152  -2.3713  -2.3246  -2.2841  -2.2347
    -2.1160  -2.1160  -2.0888  -2.0315  -1.8905  -1.4657  -1.4657  -1.3661
    -1.3162  -1.3162  -1.2630  -1.0811   0.5825   0.9386   0.9386   1.8320
     2.0443   3.0283   3.1888   3.7797   3.9954   4.1309   4.1310   4.3769
     4.3769   4.7919   5.0242   5.2545   5.2546   5.2730   5.5009   5.5009
     5.9333   6.1913   6.1914   6.5674   6.7220

          k = 0.0000-0.5774 0.0000 ( 28240 PWs)   bands (ev):

   -19.8183 -19.8183 -19.4753 -19.4753 -19.4157 -19.4157 -19.1037 -19.1037
   -19.0473 -19.0473 -18.7648 -18.7648 -17.4346 -17.4346 -17.2408 -17.2408
    -8.4673  -8.4673  -8.3342  -8.3342  -8.2426  -8.2426  -8.2119  -8.2119
    -8.1291  -8.1291  -8.0993  -8.0993  -7.9817  -7.9817  -7.8696  -7.8696
    -7.8533  -7.8533  -7.8352  -7.8352  -7.8196  -7.8196  -7.6953  -7.6953
    -7.6856  -7.6856  -7.5387  -7.5387  -7.5188  -7.5188  -7.4816  -7.4816
    -7.3303  -7.3303  -7.3229  -7.3229  -7.3077  -7.3077  -7.2032  -7.2032
    -7.0984  -7.0984  -7.0752  -7.0752  -7.0424  -7.0424  -7.0050  -7.0050
    -6.9304  -6.9304  -6.8311  -6.8311  -6.8276  -6.8276  -6.5727  -6.5727
    -6.5388  -6.5388  -6.4791  -6.4791  -6.4442  -6.4442  -6.3829  -6.3829
    -6.3306  -6.3306  -6.3183  -6.3183  -6.2006  -6.2006  -6.1819  -6.1818
    -6.1632  -6.1632  -6.1260  -6.1260  -6.0601  -6.0601  -6.0033  -6.0033
    -5.8761  -5.8761  -5.7307  -5.7307  -5.2548  -5.2547  -5.2437  -5.2437
    -4.9174  -4.9174  -4.8547  -4.8547  -4.6357  -4.6357  -4.3302  -4.3302
    -4.1837  -4.1837  -4.0747  -4.0747  -3.8467  -3.8467  -3.5916  -3.5916
    -3.2935  -3.2935  -3.2707  -3.2707  -3.0884  -3.0884  -3.0425  -3.0425
    -2.6325  -2.6325  -2.5981  -2.5981  -2.2520  -2.2520  -2.1228  -2.1228
    -2.0918  -2.0918  -2.0421  -2.0420  -1.9426  -1.9426  -1.6820  -1.6820
    -1.4955  -1.4955  -1.1719  -1.1719   1.8017   1.8017   2.7101   2.7101
     2.7868   2.7868   3.5243   3.5243   3.6772   3.6772   4.2700   4.2700
     4.6595   4.6596   4.6883   4.6884   5.4530   5.4531   5.5415   5.5415
     5.8407   5.8407   6.2540   6.2541   6.8756

          k = 0.2500 0.4330 0.0000 ( 28256 PWs)   bands (ev):

   -19.8873 -19.6488 -19.6488 -19.4786 -19.4023 -19.2614 -19.2614 -19.1039
   -19.0373 -18.9081 -18.9081 -18.7042 -17.4736 -17.3389 -17.3388 -17.1994
    -8.4942  -8.4016  -8.4016  -8.2959  -8.2573  -8.2573  -8.2353  -8.1625
    -8.1293  -8.1293  -8.1056  -8.0605  -7.9919  -7.9379  -7.9188  -7.9188
    -7.8851  -7.8565  -7.8334  -7.8333  -7.8088  -7.7714  -7.7714  -7.6837
    -7.6761  -7.6288  -7.6288  -7.5496  -7.4983  -7.4779  -7.4779  -7.4697
    -7.3891  -7.3723  -7.3723  -7.3069  -7.3065  -7.2662  -7.1679  -7.1679
    -7.1196  -7.1022  -7.0875  -7.0875  -7.0432  -7.0432  -7.0115  -7.0058
    -6.8766  -6.8604  -6.8604  -6.7766  -6.7458  -6.7458  -6.7167  -6.5560
    -6.5353  -6.4995  -6.4995  -6.4880  -6.4059  -6.4059  -6.3787  -6.3234
    -6.3234  -6.3167  -6.3031  -6.2604  -6.2164  -6.1935  -6.1757  -6.1757
    -6.1718  -6.1393  -6.1393  -6.1380  -6.0852  -6.0712  -6.0712  -6.0701
    -5.9039  -5.8541  -5.8541  -5.7638  -5.4955  -5.3623  -5.1008  -5.1008
    -5.0850  -4.9252  -4.9252  -4.8864  -4.5346  -4.5346  -4.4874  -4.4110
    -4.2216  -4.0323  -4.0323  -3.7538  -3.7495  -3.6132  -3.5896  -3.5269
    -3.5268  -3.3479  -3.3479  -3.2898  -3.1591  -3.0237  -3.0237  -2.9319
    -2.6138  -2.5711  -2.5707  -2.5706  -2.4058  -2.4058  -2.2725  -2.1536
    -2.1486  -2.1485  -2.1077  -2.0429  -2.0429  -2.0255  -1.8529  -1.7188
    -1.3585  -1.3585  -1.1952   0.3715   0.4384   1.4864   2.5434   2.7757
     2.7757   2.8868   3.4347   3.4347   3.5392   3.7990   3.7990   4.5482
     4.8384   4.8384   5.0319   5.1813   5.1813   5.4211   5.4898   6.0994
     6.1518   6.4845   6.4845   6.5006   7.0424

     the Fermi energy is    -1.3919 ev

!    total energy              =   -2891.30610261 Ry
     estimated scf accuracy    <       0.00000001 Ry
     smearing contrib. (-TS)   =      -0.00568639 Ry
     internal energy E=F+TS    =   -2891.30041622 Ry

     The total energy is F=E-TS. E is the sum of the following terms:
     one-electron contribution =  -33621.87686458 Ry
     hartree contribution      =   17044.30516070 Ry
     xc contribution           =    -874.30179450 Ry
     ewald contribution        =   14560.57308216 Ry

     convergence has been achieved in  13 iterations

     negative rho (up, down):  2.623E-03 0.000E+00

     Forces acting on atoms (cartesian axes, Ry/au):

     atom    1 type  1   force =     0.00000000    0.00000015   -0.00121803
     atom    2 type  1   force =     0.00000013   -0.00000007   -0.00121803
     atom    3 type  1   force =     0.00000000    0.00000000   -0.00121695
     atom    4 type  1   force =    -0.00000013   -0.00000007   -0.00121803
     atom    5 type  2   force =     0.00000000    0.00000045    0.00028100
     atom    6 type  2   force =     0.00000039   -0.00000022    0.00028100
     atom    7 type  2   force =     0.00000000    0.00000000    0.00028032
     atom    8 type  2   force =    -0.00000039   -0.00000022    0.00028100
     atom    9 type  1   force =     0.00000119    0.00000069    0.00076055
     atom   10 type  1   force =     0.00000000    0.00000000    0.00076224
     atom   11 type  1   force =    -0.00000119    0.00000069    0.00076055
     atom   12 type  1   force =     0.00000000   -0.00000138    0.00076055
     atom   13 type  2   force =     0.00000185    0.00000107    0.00008370
     atom   14 type  2   force =     0.00000000    0.00000000    0.00008494
     atom   15 type  2   force =    -0.00000185    0.00000107    0.00008370
     atom   16 type  2   force =     0.00000000   -0.00000213    0.00008370
     atom   17 type  1   force =     0.00000000   -0.00000207    0.00056655
     atom   18 type  1   force =    -0.00000179    0.00000103    0.00056655
     atom   19 type  1   force =     0.00000000   -0.00000000    0.00056957
     atom   20 type  1   force =     0.00000179    0.00000103    0.00056655
     atom   21 type  2   force =     0.00000000   -0.00000016   -0.00017056
     atom   22 type  2   force =    -0.00000014    0.00000008   -0.00017056
     atom   23 type  2   force =     0.00000000    0.00000000   -0.00016322
     atom   24 type  2   force =     0.00000014    0.00000008   -0.00017056
     atom   25 type  1   force =     0.00000118    0.00000068    0.00005280
     atom   26 type  1   force =     0.00000000    0.00000000    0.00003248
     atom   27 type  1   force =    -0.00000118    0.00000068    0.00005280
     atom   28 type  1   force =     0.00000000   -0.00000136    0.00005280
     atom   29 type  2   force =    -0.00000617   -0.00000356   -0.00035864
     atom   30 type  2   force =     0.00000000    0.00000000   -0.00034145
     atom   31 type  2   force =     0.00000617   -0.00000356   -0.00035864
     atom   32 type  2   force =    -0.00000000    0.00000712   -0.00035864

     Total force =     0.003241     Total SCF correction =     0.000490
     SCF correction compared to forces is large: reduce conv_thr to get better values
     Energy error            =      6.8E-05 Ry
     Gradient error          =      1.2E-03 Ry/Bohr

     number of scf cycles    =  12
     number of bfgs steps    =  11

     energy             old  =   -2891.3060350243 Ry
     energy             new  =   -2891.3061026057 Ry

     CASE: energy            _new < energy            _old

     new trust radius        =       0.0033800100 bohr
     new conv_thr            =       0.0000000100 Ry


ATOMIC_POSITIONS (angstrom)
Zn              -0.0000020000        1.7729488691       -0.5722071809
Zn              -1.5353839268        4.4323085654       -0.5722071809
Zn               3.0707980000        1.7729280000       -0.5721975402
Zn               1.5353799268        4.4323085654       -0.5722071809
O               -0.0000020000        1.7729258934        1.3898233115
O               -1.5354038244        4.4323200533        1.3898233115
O                3.0707980000        1.7729280000        1.3898335303
O                1.5353998244        4.4323200533        1.3898233115
Zn               1.5353995312        0.8864615746        2.2555174190
Zn               0.0000020000        3.5458540000        2.2555073548
Zn               4.6062044688        0.8864615746        2.2555174190
Zn               3.0708020000        3.5458568508        2.2555174190
O                1.5353959709        0.8864595191        4.1870376830
O                0.0000020000        3.5458540000        4.1870295428
O                4.6062080291        0.8864595191        4.1870376830
O                3.0708020000        3.5458609618        4.1870376830
Zn              -0.0000020000        1.7729318231        5.0653109716
Zn              -1.5353986891        4.4323170884        5.0653109716
Zn               3.0707980000        1.7729280000        5.0652915346
Zn               1.5353946891        4.4323170884        5.0653109716
O               -0.0000020000        1.7729221530        6.9945016384
O               -1.5354070636        4.4323219235        6.9945016384
O                3.0707980000        1.7729280000        6.9944987433
O                1.5354030636        4.4323219235        6.9945016384
Zn               1.5354051395        0.8864648126        7.9310934525
Zn               0.0000020000        3.5458540000        7.9310548575
Zn               4.6061988605        0.8864648126        7.9310934525
Zn               3.0708020000        3.5458503748        7.9310934525
O                1.5353511016        0.8864336138        9.7693924452
O                0.0000020000        3.5458540000        9.7693487562
O                4.6062528984        0.8864336138        9.7693924452
O                3.0708020000        3.5459127724        9.7693924452



     Writing config-only to output data dir ./tmp/zno_slab_pure.save/ :
     XML data file
     NEW-OLD atomic charge density approx. for the potential

     Check: negative core charge=   -0.000001

     negative rho (up, down):  2.619E-03 0.000E+00

     total cpu time spent up to now is    11572.2 secs

     per-process dynamical memory:   877.7 Mb

     Self-consistent Calculation

     iteration #  1     ecut=    40.00 Ry     beta= 0.30
     Davidson diagonalization with overlap
     ethr =  1.00E-06,  avg # of iterations =  3.0

     Threshold (ethr) on eigenvalues was too large:
     Diagonalizing with lowered threshold

     Davidson diagonalization with overlap
     ethr =  1.49E-08,  avg # of iterations =  4.0

     negative rho (up, down):  2.614E-03 0.000E+00

     total cpu time spent up to now is    11644.3 secs

     total energy              =   -2891.30611365 Ry
     estimated scf accuracy    <       0.00004288 Ry

     iteration #  2     ecut=    40.00 Ry     beta= 0.30
     Davidson diagonalization with overlap
     ethr =  1.49E-08,  avg # of iterations =  1.0

     negative rho (up, down):  2.612E-03 0.000E+00

     total cpu time spent up to now is    11673.9 secs

     total energy              =   -2891.30611427 Ry
     estimated scf accuracy    <       0.00001158 Ry

     iteration #  3     ecut=    40.00 Ry     beta= 0.30
     Davidson diagonalization with overlap
     ethr =  4.02E-09,  avg # of iterations =  1.2

     negative rho (up, down):  2.606E-03 0.000E+00

     total cpu time spent up to now is    11703.8 secs

     total energy              =   -2891.30611449 Ry
     estimated scf accuracy    <       0.00001519 Ry

     iteration #  4     ecut=    40.00 Ry     beta= 0.30
     Davidson diagonalization with overlap
     ethr =  4.02E-09,  avg # of iterations =  1.0

     negative rho (up, down):  2.601E-03 0.000E+00

     total cpu time spent up to now is    11733.1 secs

     total energy              =   -2891.30611446 Ry
     estimated scf accuracy    <       0.00001027 Ry

     iteration #  5     ecut=    40.00 Ry     beta= 0.30
     Davidson diagonalization with overlap
     ethr =  3.57E-09,  avg # of iterations =  1.0

     negative rho (up, down):  2.593E-03 0.000E+00

     total cpu time spent up to now is    11762.8 secs

     total energy              =   -2891.30611438 Ry
     estimated scf accuracy    <       0.00000425 Ry

     iteration #  6     ecut=    40.00 Ry     beta= 0.30
     Davidson diagonalization with overlap
     ethr =  1.48E-09,  avg # of iterations =  1.0

     negative rho (up, down):  2.586E-03 0.000E+00

     total cpu time spent up to now is    11792.4 secs

     total energy              =   -2891.30611436 Ry
     estimated scf accuracy    <       0.00000071 Ry

     iteration #  7     ecut=    40.00 Ry     beta= 0.30
     Davidson diagonalization with overlap
     ethr =  2.47E-10,  avg # of iterations =  1.8

     negative rho (up, down):  2.585E-03 0.000E+00

     total cpu time spent up to now is    11823.6 secs

     total energy              =   -2891.30611434 Ry
     estimated scf accuracy    <       0.00000139 Ry

     iteration #  8     ecut=    40.00 Ry     beta= 0.30
     Davidson diagonalization with overlap
     ethr =  2.47E-10,  avg # of iterations =  1.2

     negative rho (up, down):  2.585E-03 0.000E+00

     total cpu time spent up to now is    11853.5 secs

     total energy              =   -2891.30611437 Ry
     estimated scf accuracy    <       0.00000011 Ry

     iteration #  9     ecut=    40.00 Ry     beta= 0.30
     Davidson diagonalization with overlap
     ethr =  3.65E-11,  avg # of iterations =  3.2

     negative rho (up, down):  2.588E-03 0.000E+00

     total cpu time spent up to now is    13070.0 secs

     total energy              =   -2891.30611436 Ry
     estimated scf accuracy    <       0.00000004 Ry

     iteration # 10     ecut=    40.00 Ry     beta= 0.30
     Davidson diagonalization with overlap
     ethr =  1.39E-11,  avg # of iterations =  2.0

     negative rho (up, down):  2.589E-03 0.000E+00

     total cpu time spent up to now is    13115.9 secs

     total energy              =   -2891.30611436 Ry
     estimated scf accuracy    <       0.00000002 Ry

     iteration # 11     ecut=    40.00 Ry     beta= 0.30
     Davidson diagonalization with overlap
     ethr =  5.34E-12,  avg # of iterations =  2.0

     negative rho (up, down):  2.595E-03 0.000E+00

     total cpu time spent up to now is    13176.2 secs

     total energy              =   -2891.30611435 Ry
     estimated scf accuracy    <       0.00000001 Ry

     iteration # 12     ecut=    40.00 Ry     beta= 0.30
     Davidson diagonalization with overlap
     ethr =  5.05E-12,  avg # of iterations =  2.0

     negative rho (up, down):  2.622E-03 0.000E+00

     total cpu time spent up to now is    13240.3 secs

     End of self-consistent calculation

          k = 0.0000 0.0000 0.0000 ( 28285 PWs)   bands (ev):

   -20.1309 -19.7066 -19.4584 -19.4584 -19.4584 -19.3104 -19.0963 -19.0963
   -19.0963 -18.7599 -18.7599 -18.7598 -17.6204 -17.2415 -17.2415 -17.2415
    -8.6876  -8.4785  -8.4785  -8.4785  -8.2790  -8.2790  -8.2790  -8.2345
    -8.2345  -8.2345  -8.2074  -8.0714  -8.0053  -8.0053  -7.8837  -7.8837
    -7.8837  -7.8756  -7.8756  -7.8756  -7.8585  -7.8585  -7.7605  -7.6632
    -7.6632  -7.6632  -7.6105  -7.6105  -7.6105  -7.4772  -7.4772  -7.4772
    -7.4337  -7.4336  -7.2993  -7.2992  -7.2992  -7.2739  -7.2739  -7.2739
    -7.2237  -7.2237  -7.0195  -7.0195  -7.0195  -6.9708  -6.9708  -6.9617
    -6.9616  -6.9616  -6.6747  -6.6747  -6.6747  -6.5071  -6.5071  -6.4990
    -6.4990  -6.4989  -6.3939  -6.3939  -6.3939  -6.3651  -6.3651  -6.3651
    -6.2052  -6.2052  -6.1983  -6.1983  -6.1983  -6.1775  -6.1348  -6.1348
    -6.1207  -6.1207  -6.1207  -6.0330  -6.0330  -6.0330  -5.9799  -5.9799
    -5.9799  -5.9468  -5.9468  -5.9468  -5.7453  -5.6037  -5.6037  -5.6037
    -5.0621  -5.0621  -5.0621  -4.7360  -4.7360  -4.7360  -4.5501  -4.0406
    -4.0406  -4.0406  -3.6144  -3.6144  -3.6144  -3.6110  -3.6110  -3.6110
    -3.2495  -3.0689  -3.0688  -3.0688  -2.5689  -2.5689  -2.5688  -2.5184
    -2.5184  -2.4777  -2.4777  -2.4777  -2.1546  -2.1546  -2.1441  -2.1441
    -2.1441  -2.1217  -1.7976  -1.7975  -1.3008  -1.3007  -1.3007  -1.0447
    -1.0447  -0.7758  -0.7758  -0.7758  -0.3337  -0.3337  -0.3337  -0.0934
     1.3393   2.6777   3.5949   4.0306   4.0307   4.0307   4.0867   4.0868
     4.0868   4.7688   4.9502   4.9502   4.9502   5.6480   5.6942   5.6943
     5.6943   6.1774   6.5534   6.5535   6.5815

          k = 0.0000 0.2887 0.0000 ( 28254 PWs)   bands (ev):

   -20.0386 -19.6223 -19.5637 -19.4612 -19.4612 -19.2346 -19.1912 -19.0984
   -19.0984 -18.8458 -18.7614 -18.7614 -17.5674 -17.2996 -17.2419 -17.2419
    -8.6008  -8.4476  -8.4092  -8.4092  -8.2738  -8.2559  -8.2559  -8.2103
    -8.1846  -8.1845  -8.1257  -8.0361  -7.9582  -7.9344  -7.9344  -7.9231
    -7.8764  -7.8741  -7.8635  -7.8555  -7.7870  -7.7870  -7.7406  -7.7406
    -7.7155  -7.6844  -7.6345  -7.5704  -7.5704  -7.4837  -7.4722  -7.4481
    -7.4481  -7.3960  -7.3031  -7.3031  -7.2779  -7.2697  -7.2422  -7.2132
    -7.2132  -7.1776  -7.0533  -7.0285  -7.0285  -7.0144  -6.9846  -6.9323
    -6.9323  -6.9271  -6.7360  -6.7359  -6.7354  -6.7219  -6.6143  -6.6143
    -6.5319  -6.5047  -6.4061  -6.4054  -6.4054  -6.3776  -6.3407  -6.3407
    -6.2733  -6.2529  -6.2339  -6.2339  -6.2035  -6.1700  -6.1538  -6.1373
    -6.1234  -6.1234  -6.1216  -6.0822  -6.0437  -6.0388  -6.0388  -5.9382
    -5.9382  -5.8415  -5.8415  -5.7770  -5.6198  -5.4500  -5.4500  -5.4180
    -5.0813  -5.0577  -5.0577  -4.7860  -4.7656  -4.7656  -4.4814  -4.0697
    -4.0697  -4.0102  -3.9158  -3.9157  -3.5687  -3.5687  -3.4354  -3.3661
    -3.3412  -3.3317  -3.3317  -2.9972  -2.9243  -2.7776  -2.7776  -2.6666
    -2.6523  -2.4172  -2.4150  -2.4149  -2.3686  -2.3229  -2.2821  -2.2342
    -2.1169  -2.1169  -2.0897  -2.0322  -1.8889  -1.4660  -1.4660  -1.3664
    -1.3163  -1.3163  -1.2632  -1.0814   0.5852   0.9385   0.9385   1.8329
     2.0450   3.0276   3.1911   3.7809   3.9965   4.1335   4.1335   4.3784
     4.3784   4.7905   5.0234   5.2540   5.2540   5.2719   5.5007   5.5008
     5.9330   6.1917   6.1917   6.5687   6.7216

          k = 0.0000-0.5774 0.0000 ( 28240 PWs)   bands (ev):

   -19.8076 -19.8076 -19.4640 -19.4640 -19.4120 -19.4120 -19.1005 -19.1005
   -19.0453 -19.0453 -18.7629 -18.7629 -17.4362 -17.4361 -17.2423 -17.2423
    -8.4606  -8.4606  -8.3280  -8.3280  -8.2375  -8.2375  -8.2066  -8.2066
    -8.1276  -8.1276  -8.0973  -8.0973  -7.9790  -7.9790  -7.8665  -7.8664
    -7.8523  -7.8523  -7.8341  -7.8341  -7.8173  -7.8173  -7.6929  -7.6929
    -7.6838  -7.6838  -7.5360  -7.5360  -7.5168  -7.5168  -7.4794  -7.4794
    -7.3269  -7.3269  -7.3177  -7.3177  -7.3036  -7.3036  -7.2006  -7.2006
    -7.0966  -7.0966  -7.0718  -7.0718  -7.0393  -7.0393  -7.0030  -7.0030
    -6.9257  -6.9256  -6.8297  -6.8297  -6.8263  -6.8263  -6.5697  -6.5697
    -6.5343  -6.5343  -6.4739  -6.4739  -6.4413  -6.4413  -6.3822  -6.3822
    -6.3313  -6.3312  -6.3193  -6.3193  -6.2002  -6.2001  -6.1813  -6.1813
    -6.1628  -6.1628  -6.1263  -6.1263  -6.0602  -6.0602  -6.0012  -6.0012
    -5.8760  -5.8760  -5.7255  -5.7254  -5.2532  -5.2532  -5.2406  -5.2406
    -4.9134  -4.9134  -4.8515  -4.8515  -4.6321  -4.6321  -4.3256  -4.3256
    -4.1824  -4.1824  -4.0722  -4.0722  -3.8425  -3.8424  -3.5893  -3.5893
    -3.2923  -3.2922  -3.2686  -3.2686  -3.0857  -3.0857  -3.0371  -3.0371
    -2.6300  -2.6300  -2.5954  -2.5954  -2.2521  -2.2520  -2.1206  -2.1206
    -2.0928  -2.0927  -2.0431  -2.0430  -1.9428  -1.9428  -1.6823  -1.6822
    -1.4955  -1.4955  -1.1722  -1.1722   1.8045   1.8045   2.7104   2.7104
     2.7873   2.7874   3.5253   3.5254   3.6769   3.6769   4.2727   4.2727
     4.6610   4.6610   4.6883   4.6883   5.4496   5.4496   5.5416   5.5416
     5.8391   5.8391   6.2535   6.2535   6.8760

          k = 0.2500 0.4330 0.0000 ( 28256 PWs)   bands (ev):

   -19.8767 -19.6378 -19.6378 -19.4748 -19.3908 -19.2580 -19.2580 -19.1018
   -19.0343 -18.9061 -18.9061 -18.7023 -17.4752 -17.3404 -17.3404 -17.2010
    -8.4875  -8.3950  -8.3950  -8.2899  -8.2519  -8.2519  -8.2301  -8.1570
    -8.1280  -8.1280  -8.1028  -8.0595  -7.9901  -7.9366  -7.9153  -7.9153
    -7.8815  -7.8556  -7.8323  -7.8323  -7.8065  -7.7693  -7.7693  -7.6820
    -7.6736  -7.6269  -7.6269  -7.5469  -7.4958  -7.4746  -7.4746  -7.4667
    -7.3877  -7.3685  -7.3685  -7.3038  -7.3019  -7.2629  -7.1639  -7.1639
    -7.1164  -7.0989  -7.0858  -7.0858  -7.0399  -7.0399  -7.0098  -7.0036
    -6.8753  -6.8583  -6.8583  -6.7737  -6.7432  -6.7432  -6.7127  -6.5510
    -6.5320  -6.4952  -6.4952  -6.4829  -6.4035  -6.4035  -6.3774  -6.3237
    -6.3236  -6.3160  -6.3035  -6.2616  -6.2168  -6.1936  -6.1751  -6.1751
    -6.1710  -6.1381  -6.1381  -6.1380  -6.0787  -6.0715  -6.0715  -6.0702
    -5.9009  -5.8523  -5.8523  -5.7638  -5.4917  -5.3612  -5.0971  -5.0970
    -5.0822  -4.9215  -4.9215  -4.8818  -4.5331  -4.5331  -4.4854  -4.4056
    -4.2172  -4.0304  -4.0304  -3.7512  -3.7464  -3.6108  -3.5876  -3.5213
    -3.5213  -3.3463  -3.3463  -3.2873  -3.1572  -3.0212  -3.0212  -2.9267
    -2.6111  -2.5691  -2.5686  -2.5686  -2.4037  -2.4037  -2.2726  -2.1515
    -2.1489  -2.1488  -2.1086  -2.0436  -2.0436  -2.0263  -1.8530  -1.7190
    -1.3588  -1.3588  -1.1955   0.3719   0.4375   1.4892   2.5439   2.7786
     2.7786   2.8874   3.4351   3.4352   3.5387   3.7999   3.7999   4.5485
     4.8366   4.8367   5.0334   5.1806   5.1806   5.4229   5.4894   6.1011
     6.1506   6.4856   6.4856   6.5005   7.0418

     the Fermi energy is    -1.3922 ev

!    total energy              =   -2891.30611431 Ry
     estimated scf accuracy    <          6.4E-09 Ry
     smearing contrib. (-TS)   =      -0.00568963 Ry
     internal energy E=F+TS    =   -2891.30042468 Ry

     The total energy is F=E-TS. E is the sum of the following terms:
     one-electron contribution =  -33613.77355265 Ry
     hartree contribution      =   17040.27259495 Ry
     xc contribution           =    -874.29688897 Ry
     ewald contribution        =   14556.49742199 Ry

     convergence has been achieved in  12 iterations

     negative rho (up, down):  2.622E-03 0.000E+00

     Forces acting on atoms (cartesian axes, Ry/au):

     atom    1 type  1   force =     0.00000000    0.00000056   -0.00052945
     atom    2 type  1   force =     0.00000048   -0.00000028   -0.00052945
     atom    3 type  1   force =     0.00000000    0.00000000   -0.00052909
     atom    4 type  1   force =    -0.00000048   -0.00000028   -0.00052945
     atom    5 type  2   force =     0.00000000   -0.00000025   -0.00006322
     atom    6 type  2   force =    -0.00000021    0.00000012   -0.00006322
     atom    7 type  2   force =     0.00000000   -0.00000000   -0.00006259
     atom    8 type  2   force =     0.00000021    0.00000012   -0.00006322
     atom    9 type  1   force =     0.00000012    0.00000007    0.00027372
     atom   10 type  1   force =     0.00000000   -0.00000000    0.00027547
     atom   11 type  1   force =    -0.00000012    0.00000007    0.00027372
     atom   12 type  1   force =     0.00000000   -0.00000014    0.00027372
     atom   13 type  2   force =     0.00000149    0.00000086    0.00037495
     atom   14 type  2   force =     0.00000000   -0.00000000    0.00037640
     atom   15 type  2   force =    -0.00000149    0.00000086    0.00037495
     atom   16 type  2   force =     0.00000000   -0.00000172    0.00037495
     atom   17 type  1   force =     0.00000000   -0.00000066    0.00032209
     atom   18 type  1   force =    -0.00000057    0.00000033    0.00032209
     atom   19 type  1   force =     0.00000000    0.00000000    0.00032757
     atom   20 type  1   force =     0.00000057    0.00000033    0.00032209
     atom   21 type  2   force =     0.00000000    0.00000009    0.00022512
     atom   22 type  2   force =     0.00000008   -0.00000005    0.00022512
     atom   23 type  2   force =     0.00000000   -0.00000000    0.00022814
     atom   24 type  2   force =    -0.00000008   -0.00000005    0.00022512
     atom   25 type  1   force =    -0.00000022   -0.00000013   -0.00039745
     atom   26 type  1   force =     0.00000000    0.00000000   -0.00039776
     atom   27 type  1   force =     0.00000022   -0.00000013   -0.00039745
     atom   28 type  1   force =     0.00000000    0.00000025   -0.00039745
     atom   29 type  2   force =    -0.00000669   -0.00000386   -0.00021060
     atom   30 type  2   force =     0.00000000    0.00000000   -0.00020366
     atom   31 type  2   force =     0.00000669   -0.00000386   -0.00021060
     atom   32 type  2   force =    -0.00000000    0.00000773   -0.00021060

     Total force =     0.001852     Total SCF correction =     0.000348
     SCF correction compared to forces is large: reduce conv_thr to get better values
     Energy error            =      1.2E-05 Ry
     Gradient error          =      5.3E-04 Ry/Bohr

     bfgs converged in  13 scf cycles and  12 bfgs steps
     (criteria: energy <  1.0E-04 Ry, force <  1.0E-03 Ry/Bohr)

     End of BFGS Geometry Optimization

     Final energy             =   -2891.3061143084 Ry

     File ./tmp/zno_slab_pure.bfgs deleted, as requested
Begin final coordinates

ATOMIC_POSITIONS (angstrom)
Zn              -0.0000020000        1.7729488691       -0.5722071809
Zn              -1.5353839268        4.4323085654       -0.5722071809
Zn               3.0707980000        1.7729280000       -0.5721975402
Zn               1.5353799268        4.4323085654       -0.5722071809
O               -0.0000020000        1.7729258934        1.3898233115
O               -1.5354038244        4.4323200533        1.3898233115
O                3.0707980000        1.7729280000        1.3898335303
O                1.5353998244        4.4323200533        1.3898233115
Zn               1.5353995312        0.8864615746        2.2555174190
Zn               0.0000020000        3.5458540000        2.2555073548
Zn               4.6062044688        0.8864615746        2.2555174190
Zn               3.0708020000        3.5458568508        2.2555174190
O                1.5353959709        0.8864595191        4.1870376830
O                0.0000020000        3.5458540000        4.1870295428
O                4.6062080291        0.8864595191        4.1870376830
O                3.0708020000        3.5458609618        4.1870376830
Zn              -0.0000020000        1.7729318231        5.0653109716
Zn              -1.5353986891        4.4323170884        5.0653109716
Zn               3.0707980000        1.7729280000        5.0652915346
Zn               1.5353946891        4.4323170884        5.0653109716
O               -0.0000020000        1.7729221530        6.9945016384
O               -1.5354070636        4.4323219235        6.9945016384
O                3.0707980000        1.7729280000        6.9944987433
O                1.5354030636        4.4323219235        6.9945016384
Zn               1.5354051395        0.8864648126        7.9310934525
Zn               0.0000020000        3.5458540000        7.9310548575
Zn               4.6061988605        0.8864648126        7.9310934525
Zn               3.0708020000        3.5458503748        7.9310934525
O                1.5353511016        0.8864336138        9.7693924452
O                0.0000020000        3.5458540000        9.7693487562
O                4.6062528984        0.8864336138        9.7693924452
O                3.0708020000        3.5459127724        9.7693924452
End final coordinates



     Writing all to output data dir ./tmp/zno_slab_pure.save/ :
     XML data file, charge density, pseudopotentials, collected wavefunctions

     init_run     :     37.88s CPU     19.09s WALL (       1 calls)
     electrons    :  34715.27s CPU  13053.58s WALL (      13 calls)
     update_pot   :     10.94s CPU     11.40s WALL (      12 calls)
     forces       :    536.40s CPU    135.96s WALL (      13 calls)

     Called by init_run:
     wfcinit      :     31.81s CPU     14.19s WALL (       1 calls)
     potinit      :      1.28s CPU      1.35s WALL (       1 calls)
     hinit0       :      1.42s CPU      1.45s WALL (       1 calls)

     Called by electrons:
     c_bands      :  28431.63s CPU   9578.90s WALL (     235 calls)
     sum_band     :   4582.13s CPU   2222.69s WALL (     235 calls)
     v_of_rho     :    170.59s CPU    178.50s WALL (     246 calls)
     newd         :   1053.37s CPU    575.41s WALL (     246 calls)
     mix_rho      :    513.09s CPU    520.83s WALL (     235 calls)

     Called by c_bands:
     init_us_2    :    225.00s CPU    153.65s WALL (    1936 calls)
     cegterg      :  27952.72s CPU   9249.69s WALL (     940 calls)

     Called by *egterg:
     cdiaghg      :   1336.18s CPU    191.74s WALL (    3860 calls)
     h_psi        :  11603.60s CPU   5782.07s WALL (    3920 calls)
     s_psi        :   3260.51s CPU    445.47s WALL (    3920 calls)
     g_psi        :    270.99s CPU     46.32s WALL (    2976 calls)

     Called by h_psi:
     h_psi:calbec :   3150.55s CPU    429.86s WALL (    3920 calls)
     vloc_psi     :   4980.77s CPU   4802.75s WALL (    3920 calls)
                                        0.00s GPU  (    3920 calls)
     add_vuspsi   :   3333.93s CPU    498.71s WALL (    3920 calls)

     General routines
     calbec       :   4667.52s CPU    637.15s WALL (    5068 calls)
     fft          :     91.74s CPU     89.53s WALL (    3329 calls)
     ffts         :    176.88s CPU    163.27s WALL (   27541 calls)
     fftw         :   4749.28s CPU   4623.25s WALL (  954994 calls)
     interpolate  :     11.58s CPU     11.68s WALL (     246 calls)

     Parallel routines

     PWSCF        :      9h49m CPU      3h40m WALL


   This run was terminated on:  17:23:57  25May2026            

=------------------------------------------------------------------------------=
   JOB DONE.
=------------------------------------------------------------------------------=
